lattice_vector     11.44057932     -6.28898809     -0.31059128
lattice_vector      0.32476398     13.52027157     -0.31243895
lattice_vector     -0.31361580     -0.56856663      7.98502294
atom_frac       0.18039757     -0.07445152      0.33354909 C
atom_frac       0.63969731      0.35722046      0.04793712 C
atom_frac       0.72583932      0.64122667      0.31599403 C
atom_frac       1.22489424      0.72346728      0.97611669 C
atom_frac       0.90502790      0.17607581      0.42199707 C
atom_frac       0.37907443      0.25083516      0.74628327 C
atom_frac       0.82044499      1.07535384      0.66715772 C
atom_frac       0.36007278      0.64258019      0.95194695 C
atom_frac       0.27388261      0.35853831      0.68375015 C
atom_frac      -0.22502812      0.27644227      0.02384894 C
atom_frac       0.09555314      0.82425553      0.57816952 C
atom_frac       0.62046221      0.74873129      0.25320584 C
atom_frac       0.53886916     -0.00815597      0.34517668 C
atom_frac      -0.02190680      0.53856314      0.35331735 C
atom_frac       0.43202111      0.42556314      0.36537153 C
atom_frac       0.02176973      0.46136861      0.64664507 C
atom_frac       0.46108457      0.00796747      0.65470831 C
atom_frac       0.56778560      0.57417305      0.63446779 C
atom_frac       0.58033619      0.09827117      0.43467154 C
atom_frac       0.88501437      0.46590468      0.43556600 C
atom_frac       0.51086002      0.40193013      0.45200188 C
atom_frac       0.90751020      0.42652305      0.58736239 C
atom_frac       0.54144918      0.10623869      0.59597229 C
atom_frac       0.58047835      0.47796744      0.59215356 C
atom_frac       0.41961906      0.90153999      0.56521443 C
atom_frac       0.11484670      0.53399719      0.56436611 C
atom_frac       0.48895279      0.59781037      0.54784079 C
atom_frac       0.09235348      0.57338400      0.41257265 C
atom_frac       0.45849773      0.89357164      0.40390978 C
atom_frac       0.41932513      0.52176882      0.40770161 C
atom_frac       0.58614683     -0.01705080      0.14382843 Cl
atom_frac      -0.04571642      0.58498051      0.16687465 Cl
atom_frac       0.33147959      0.31996465      0.21201888 Cl
atom_frac       0.04558204      0.41498229      0.83311543 Cl
atom_frac       0.41380603      0.01686618      0.85605997 Cl
atom_frac       0.66834535      0.67977544      0.78779630 Cl
atom_frac       0.66397588      0.32515849      0.53814097 V
initial_moment 2.0
atom_frac       0.33589310      0.67464502      0.46171566 V
initial_moment 1.0
atom_frac       0.20787359     -0.00857270      0.58067406 H
atom_frac      -0.36041214      0.22863918      0.17540365 H
atom_frac       0.79087000      0.79028462      0.21396777 H
atom_frac       0.36025422      0.77119404      0.82450238 H
atom_frac       0.79318479      0.00884978      0.42034545 H
atom_frac       0.20844719      0.20899094      0.78444684 H
atom_frac       0.07516304     -0.03961818      0.50083398 H
atom_frac      -0.39981582      0.19551595     -0.03315102 H
atom_frac       0.69651528      0.68373066      0.08336774 H
atom_frac       0.39968575      0.80431072      1.03305014 H
atom_frac       0.92607402      0.04060581      0.50060132 H
atom_frac       0.30249068      0.31525447      0.91603768 H
atom_frac       0.10978425     -0.14144336      0.25277097 H
atom_frac       0.65313563      0.38146515     -0.07851990 H
atom_frac       0.64328072      0.56601881      0.31058376 H
atom_frac       1.20544552      0.69629832      1.10026649 H
atom_frac       0.97392354      0.24183133      0.50671200 H
atom_frac       0.46182599      0.32590301      0.76861124 H
atom_frac       0.89108190      1.14234965      0.74787274 H
atom_frac       0.34664179      0.61833531      1.07840306 H
atom_frac       0.35651901      0.43370312      0.68967549 H
atom_frac      -0.20557366      0.30361833     -0.10029554 H
atom_frac       0.02659120      0.75879067      0.49318991 H
atom_frac       0.53765781      0.67369484      0.23137573 H
atom_frac       0.25293329     -0.09293145      0.34317741 H
atom_frac       0.70145117      0.42276887      0.14050740 H
atom_frac       0.74859549      0.68245218      0.44456523 H
atom_frac       1.16499279      0.65930848      0.87996322 H
atom_frac       0.83376938      0.19612180      0.40519868 H
atom_frac       0.36676588      0.22017120      0.61302531 H
atom_frac       0.74803676      1.09400153      0.65721617 H
atom_frac       0.29828691      0.57704720      0.85939154 H
atom_frac       0.25128570      0.31764388      0.55499491 H
atom_frac      -0.16516654      0.34061750      0.12001860 H
atom_frac       0.16663212      0.80391920      0.59469548 H
atom_frac       0.63308209      0.77966884      0.38638108 H
atom_frac       0.20687323      0.00594853      0.28626599 H
atom_frac       0.55262993      0.33643851      0.08202836 H
atom_frac       0.79247267      0.62073294      0.27149738 H
atom_frac       1.22129184      0.80167892      0.96798037 H
atom_frac       0.93847397      0.16537510      0.30222390 H
atom_frac       0.37724805      0.18810071      0.82288855 H
atom_frac       0.79377668      0.99501810      0.71472124 H
atom_frac       0.44712058      0.66331537      0.91780870 H
atom_frac       0.20724778      0.37902037      0.72827259 H
atom_frac      -0.22137739      0.19825612      0.03201278 H
atom_frac       0.06212247      0.83477799      0.69803669 H
atom_frac       0.62218148      0.81132248      0.17638361 H
atom_frac       0.13958063     -0.06838741      0.50356698 N
atom_frac      -0.34342307      0.25680514      0.05684804 N
atom_frac       0.71340722      0.71877837      0.20727878 N
atom_frac       0.34326038      0.74303523      0.94306445 N
atom_frac       0.86135811      0.06898852      0.49728519 N
atom_frac       0.28595472      0.28057599      0.79197179 N
atom_frac       0.65529143      0.19240962      0.37897260 O
atom_frac       0.77710838      0.42702330      0.38643591 O
atom_frac       0.52776609      0.31382646      0.41104566 O
initial_moment 1.0
atom_frac       0.81784008      0.35869720      0.65571993 O
initial_moment -1.0
atom_frac       0.58455847      0.20731512      0.68375084 O
atom_frac       0.65398181      0.45294420      0.67008073 O
atom_frac       0.34465306      0.80740832      0.62091748 O
initial_moment -1.0
atom_frac       0.22275169      0.57283975      0.61345901 O
atom_frac       0.47207005      0.68592547      0.58879580 O
atom_frac       0.18202963      0.64117495      0.34418848 O
atom_frac       0.41536676      0.79249287      0.31612371 O
atom_frac       0.34583097      0.54681398      0.32978432 O
