# 
# This is the geometry file that corresponds to the current relaxation step.
# If you do not want this file to be written, set the "write_restart_geometry" flag to .false.
#  aims_uuid : 9F76A676-922B-46AD-A1F0-C34F4D8510D4                                
# 
lattice_vector     11.44057932     -6.28898809     -0.31059128
lattice_vector      0.32476398     13.52027157     -0.31243895
lattice_vector     -0.31361580     -0.56856663      7.98502294
atom_frac       0.18409845     -0.11277723      0.34114210 C
atom_frac       0.63468384      0.35845772      0.05232327 C
atom_frac       0.73440630      0.65083037      0.31883557 C
atom_frac       1.22868194      0.71916110      0.97493505 C
atom_frac       0.90317490      0.18340601      0.38682245 C
atom_frac       0.37904249      0.25173850      0.75720873 C
atom_frac       0.81414592      1.10965955      0.64752768 C
atom_frac       0.36501360      0.64046513      0.95032434 C
atom_frac       0.26919471      0.35212508      0.68538917 C
atom_frac      -0.23014235      0.27849683      0.02544138 C
atom_frac       0.10145951      0.82102468      0.60897938 C
atom_frac       0.62457376      0.75140872      0.24807112 C
atom_frac       0.53690953     -0.00851268      0.34630861 C
atom_frac      -0.02238715      0.53686969      0.35356498 C
atom_frac       0.43133957      0.42485896      0.36518509 C
atom_frac       0.02167374      0.46192652      0.65011680 C
atom_frac       0.45896677      0.00716992      0.65547915 C
atom_frac       0.56858240      0.57426370      0.63371279 C
atom_frac       0.57790085      0.09788593      0.43600708 C
atom_frac       0.88490189      0.46496513      0.43672412 C
atom_frac       0.50995573      0.40111104      0.45199219 C
atom_frac       0.90770977      0.42590510      0.58959960 C
atom_frac       0.53910737      0.10594543      0.59748231 C
atom_frac       0.58031415      0.47771885      0.59107375 C
atom_frac       0.41908441      0.90062309      0.56617135 C
atom_frac       0.11452328      0.53400636      0.56646192 C
atom_frac       0.48927675      0.59731154      0.54748188 C
atom_frac       0.09177638      0.57218521      0.41391670 C
atom_frac       0.45729390      0.89280728      0.40510794 C
atom_frac       0.41964977      0.52142242      0.40778881 C
atom_frac       0.58278162     -0.01630621      0.14508694 Cl
atom_frac      -0.04593176      0.58088771      0.16665522 Cl
atom_frac       0.33109615      0.32055373      0.21343597 Cl
atom_frac       0.04568242      0.41623251      0.83511378 Cl
atom_frac       0.41260991      0.01466202      0.85642141 Cl
atom_frac       0.66713908      0.67785013      0.78788519 Cl
atom_frac       0.66310561      0.32610052      0.53877508 V
atom_frac       0.33611555      0.67382894      0.46241452 V
atom_frac       0.25161603     -0.03737519      0.57989325 H
atom_frac      -0.36591012      0.22828476      0.17535805 H
atom_frac       0.79670789      0.79943525      0.21563898 H
atom_frac       0.36451949      0.76952875      0.82530536 H
atom_frac       0.74469891      0.04886321      0.40503670 H
atom_frac       0.20810728      0.20617798      0.79518398 H
atom_frac       0.13192115     -0.02934188      0.52255262 H
atom_frac      -0.40414396      0.19784799     -0.03403579 H
atom_frac       0.70641991      0.69046372      0.08358167 H
atom_frac       0.40280320      0.80124585      1.03416740 H
atom_frac       0.85618413      0.02538029      0.45344043 H
atom_frac       0.30023375      0.31599173      0.92239153 H
atom_frac       0.10043652     -0.14488092      0.27117058 H
atom_frac       0.64751718      0.38348547     -0.07378444 H
atom_frac       0.65308123      0.57436989      0.31440942 H
atom_frac       1.20764464      0.68799021      1.09627922 H
atom_frac       0.98552269      0.22685028      0.46150566 H
atom_frac       0.46057345      0.32829272      0.77450743 H
atom_frac       0.89587781      1.13083446      0.71638342 H
atom_frac       0.35156359      0.61552677      1.07646543 H
atom_frac       0.35047191      0.42837488      0.68730600 H
atom_frac      -0.20918258      0.30954565     -0.09605181 H
atom_frac       0.02000472      0.76803424      0.53546301 H
atom_frac       0.54354055      0.67436471      0.22937598 H
atom_frac       0.21165850     -0.17752713      0.33658145 H
atom_frac       0.69699134      0.42353070      0.14484532 H
atom_frac       0.75576309      0.69350797      0.44660311 H
atom_frac       1.16992055      0.65727485      0.87561259 H
atom_frac       0.86191928      0.23684093      0.38159975 H
atom_frac       0.36580254      0.21693708      0.62576959 H
atom_frac       0.79576423      1.18064181      0.66212601 H
atom_frac       0.30351079      0.57501169      0.85746795 H
atom_frac       0.24703129      0.30793072      0.55854705 H
atom_frac      -0.17112995      0.34016096      0.12477495 H
atom_frac       0.15138655      0.77620543      0.62377879 H
atom_frac       0.63691084      0.78578001      0.37960962 H
atom_frac       0.24775302     -0.03826428      0.29191195 H
atom_frac       0.54791238      0.33779035      0.08759372 H
atom_frac       0.80260352      0.63180006      0.27729807 H
atom_frac       1.22442166      0.79749095      0.97280685 H
atom_frac       0.91618236      0.15498896      0.26120327 H
atom_frac       0.38010251      0.19248423      0.83858539 H
atom_frac       0.74462151      1.03564935      0.68961452 H
atom_frac       0.45217104      0.66169049      0.91642221 H
atom_frac       0.20127992      0.37166294      0.72667422 H
atom_frac      -0.22641929      0.19987289      0.02712739 H
atom_frac       0.08515284      0.85206581      0.73055457 H
atom_frac       0.62345298      0.81087120      0.16711061 H
atom_frac       0.17086040     -0.08160348      0.51853758 N
atom_frac      -0.34859458      0.25791374      0.05799469 N
atom_frac       0.72048909      0.72560111      0.20697835 N
atom_frac       0.34739538      0.74036555      0.94300930 N
atom_frac       0.82533807      0.08410320      0.46709290 N
atom_frac       0.28425447      0.27911870      0.79957627 N
atom_frac       0.65321299      0.19134915      0.37989881 O
atom_frac       0.77728714      0.42502490      0.38551715 O
atom_frac       0.52366592      0.31110155      0.41521490 O
atom_frac       0.81874650      0.35548938      0.65607986 O
atom_frac       0.58249793      0.20601065      0.68590078 O
atom_frac       0.65208200      0.45113464      0.67099252 O
atom_frac       0.34498471      0.80644755      0.62227512 O
atom_frac       0.22221424      0.57274907      0.61394658 O
atom_frac       0.47113740      0.68467961      0.58848277 O
atom_frac       0.18175290      0.63911476      0.34555209 O
atom_frac       0.41361679      0.79197809      0.31697729 O
atom_frac       0.34602941      0.54663936      0.33104383 O
# 
# What follows is the current estimated Hessian matrix constructed by the BFGS algorithm.
# This is NOT the true Hessian matrix of the system.
# If you do not want this information here, switch it off using the "hessian_to_restart_geometry" keyword.
# 
trust_radius             0.0259288190
hessian_file
