lattice_vector     11.44057932     -6.28898809     -0.31059128
lattice_vector      0.32476398     13.52027157     -0.31243895
lattice_vector     -0.31361580     -0.56856663      7.98502294
atom_frac       0.20757925     -0.07632420      0.35540092 C
atom_frac       0.63470143      0.37665963      0.04695896 C
atom_frac       0.76190594      0.67809464      0.36968923 C
atom_frac       1.23051773      0.71276340      0.98795522 C
atom_frac       0.93759861      0.20681036      0.35380942 C
atom_frac       0.35457714      0.23194942      0.74236239 C
atom_frac       0.82970893      1.11564062      0.59174903 C
atom_frac       0.36444905      0.63126882      0.96733180 C
atom_frac       0.25602180      0.34596241      0.68912660 C
atom_frac      -0.24768428      0.27665852      0.02459030 C
atom_frac       0.10762649      0.82424501      0.59168158 C
atom_frac       0.63731461      0.75880308      0.27752817 C
atom_frac       0.53193601     -0.01512809      0.35523355 C
atom_frac      -0.02479693      0.53193296      0.36131673 C
atom_frac       0.42911511      0.42026008      0.36685486 C
atom_frac       0.01392440      0.45804399      0.65668061 C
atom_frac       0.46027151      0.00388026      0.67057519 C
atom_frac       0.56500003      0.56467648      0.64442967 C
atom_frac       0.56955399      0.09091840      0.44326654 C
atom_frac       0.88088828      0.45813148      0.44064501 C
atom_frac       0.51087110      0.39798057      0.44820439 C
atom_frac       0.90110788      0.42290017      0.59131935 C
atom_frac       0.53461025      0.10166234      0.60410458 C
atom_frac       0.57768689      0.47004953      0.59089649 C
atom_frac       0.42263722      0.89711698      0.58478504 C
atom_frac       0.10892857      0.53086785      0.57708125 C
atom_frac       0.48574477      0.58890422      0.56123412 C
atom_frac       0.08797823      0.57014357      0.42863262 C
atom_frac       0.45784252      0.88705873      0.42012982 C
atom_frac       0.41520444      0.51455494      0.41819758 C
atom_frac       0.57601837     -0.02321845      0.15404277 Cl
atom_frac      -0.04755187      0.57646448      0.17372769 Cl
atom_frac       0.33096904      0.31842123      0.21091642 Cl
atom_frac       0.03434371      0.41344211      0.84509244 Cl
atom_frac       0.41472836      0.01451794      0.87004374 Cl
atom_frac       0.65884439      0.66115556      0.80774013 Cl
atom_frac       0.66360538      0.31967856      0.53652582 V
initial_moment -2.0
atom_frac       0.33161294      0.66643424      0.48463765 V
initial_moment 1.0
atom_frac       0.05433023     -0.21996552      0.34077579 H
atom_frac      -0.38967759      0.23687513      0.16009126 H
atom_frac       0.81645142      0.83011885      0.27302552 H
atom_frac       0.36985040      0.76404475      0.84612776 H
atom_frac       0.76477889      0.16520302      0.39506752 H
atom_frac       0.19164668      0.20215713      0.80608094 H
atom_frac       0.16317162     -0.24603955      0.39128714 H
atom_frac      -0.41796031      0.21368312     -0.05028181 H
atom_frac       0.74350650      0.71835886      0.13277322 H
atom_frac       0.40354458      0.79144784      1.05657402 H
atom_frac       0.79045619      0.05715022      0.34129918 H
atom_frac       0.29588173      0.30990244      0.92053265 H
atom_frac       0.28813794     -0.03640629      0.43470018 H
atom_frac       0.65693571      0.40573379     -0.07555679 H
atom_frac       0.68725239      0.59557464      0.35409182 H
atom_frac       1.20709873      0.68169743      1.10894728 H
atom_frac       0.99099000      0.16429493      0.35840424 H
atom_frac       0.43946134      0.30406580      0.74802793 H
atom_frac       0.88532343      1.07629553      0.60749638 H
atom_frac       0.34773256      0.60431632      1.09203372 H
atom_frac       0.33957461      0.41855947      0.68477620 H
atom_frac      -0.21890170      0.30979070     -0.09366704 H
atom_frac       0.18871560      0.85375297      0.66730317 H
atom_frac       0.56330347      0.67661704      0.24804710 H
atom_frac       0.16403883     -0.02403623      0.36120121 H
atom_frac       0.69618443      0.43475696      0.14727309 H
atom_frac       0.77097125      0.71684373      0.49816648 H
atom_frac       1.17374436      0.65172924      0.88628504 H
atom_frac       0.97711463      0.28678136      0.43333544 H
atom_frac       0.32951821      0.19332418      0.61275016 H
atom_frac       0.86326492      1.19623245      0.66865198 H
atom_frac       0.30399356      0.56813007      0.87080217 H
atom_frac       0.22625467      0.30121580      0.56326032 H
atom_frac      -0.18934820      0.33191373      0.12982004 H
atom_frac       0.07061080      0.88163784      0.61347234 H
atom_frac       0.63717028      0.78974078      0.40773500 H
atom_frac       0.22586756     -0.09082435      0.22631861 H
atom_frac       0.54827233      0.36355491      0.07245987 H
atom_frac       0.83885222      0.67045928      0.33991991 H
atom_frac       1.22759081      0.79156024      0.98334953 H
atom_frac       0.92528760      0.22009728      0.22474372 H
atom_frac       0.35557849      0.17207966      0.82269523 H
atom_frac       0.74270283      1.06051925      0.62368692 H
atom_frac       0.45228754      0.65171110      0.93806837 H
atom_frac       0.19415122      0.37169246      0.73856477 H
atom_frac      -0.25558128      0.19286416      0.02174957 H
atom_frac       0.04700895      0.74142194      0.62148897 H
atom_frac       0.63402249      0.81634897      0.19451564 H
atom_frac       0.13086240     -0.18480315      0.41310848 N
atom_frac      -0.36310521      0.26836157      0.04797800 N
atom_frac       0.74472119      0.74920961      0.25483899 N
atom_frac       0.34955466      0.73278096      0.96181174 N
atom_frac       0.82401335      0.13379349      0.41339641 N
atom_frac       0.27014115      0.27036554      0.79942131 N
atom_frac       0.64442613      0.18630833      0.38611638 O
atom_frac       0.77115805      0.41354651      0.38495104 O
atom_frac       0.53306275      0.31340756      0.40637216 O
initial_moment 1.0
atom_frac       0.80633055      0.35234173      0.65626832 O
initial_moment 1.0
atom_frac       0.57769617      0.20492632      0.68364168 O
atom_frac       0.64873449      0.43918952      0.66284775 O
atom_frac       0.35177409      0.80418686      0.64434256 O
initial_moment 1.0
atom_frac       0.21731729      0.57121114      0.63476965 O
atom_frac       0.47012011      0.67646102      0.60506376 O
atom_frac       0.18002384      0.64871650      0.36754839 O
atom_frac       0.41494068      0.78612570      0.33617597 O
atom_frac       0.34112852      0.54068111      0.34637518 O
