lattice_vector     11.44057932     -6.28898809     -0.31059128
lattice_vector      0.32476398     13.52027157     -0.31243895
lattice_vector     -0.31361580     -0.56856663      7.98502294
atom_frac       0.17313474     -0.07295543      0.37572619 C
atom_frac       0.64201152      0.37087074      0.03124880 C
atom_frac       0.74766333      0.65406962      0.32927783 C
atom_frac       1.23738009      0.72688216      0.98937603 C
atom_frac       0.93110993      0.17035457      0.38618721 C
atom_frac       0.36098427      0.24099776      0.72591422 C
atom_frac       0.82683337      1.07290331      0.62417370 C
atom_frac       0.35798075      0.62907793      0.96871899 C
atom_frac       0.25233292      0.34591130      0.67073866 C
atom_frac      -0.23739220      0.27306291      0.01059020 C
atom_frac       0.06888132      0.82956031      0.61371205 C
atom_frac       0.63900684      0.75891329      0.27399102 C
atom_frac       0.53511329     -0.01019688      0.34084404 C
atom_frac      -0.01726253      0.53515772      0.34804693 C
atom_frac       0.43162778      0.42846029      0.35975152 C
atom_frac       0.01729200      0.46478397      0.65190567 C
atom_frac       0.46482809      0.01015943      0.65914518 C
atom_frac       0.56830260      0.57142953      0.64024694 C
atom_frac       0.57169709      0.09631455      0.42699941 C
atom_frac       0.88763981      0.46216874      0.42714129 C
atom_frac       0.51414600      0.40658352      0.43933506 C
atom_frac       0.90537002      0.42754317      0.58068629 C
atom_frac       0.53786802      0.10718427      0.59018078 C
atom_frac       0.58207370      0.47783532      0.58315882 C
atom_frac       0.42825165      0.90364938      0.57299358 C
atom_frac       0.11239371      0.53776410      0.57279098 C
atom_frac       0.48579353      0.59330478      0.56065206 C
atom_frac       0.09466530      0.57239003      0.41926142 C
atom_frac       0.46206028      0.89278639      0.40980087 C
atom_frac       0.41785691      0.52205195      0.41683974 C
atom_frac       0.58011860     -0.02057603      0.13996207 Cl
atom_frac      -0.03663940      0.57730909      0.15626625 Cl
atom_frac       0.33477278      0.32888782      0.19961238 Cl
atom_frac       0.03666515      0.42270719      0.84375769 Cl
atom_frac       0.41986626      0.02053323      0.86006150 Cl
atom_frac       0.66527735      0.67111466      0.80017286 Cl
atom_frac       0.66765278      0.32552099      0.51958585 V
initial_moment 1.0
atom_frac       0.33238915      0.67444936      0.48038097 V
initial_moment 1.0
atom_frac       0.10671011     -0.00701529      0.56734418 H
atom_frac      -0.37409182      0.23660453      0.15694085 H
atom_frac       0.81793082      0.81892932      0.27526025 H
atom_frac       0.37407701      0.76334318      0.84302300 H
atom_frac       0.89335475      0.00694483      0.43266582 H
atom_frac       0.18207646      0.18104147      0.72474536 H
atom_frac       0.00554068     -0.10478387      0.43325170 H
atom_frac      -0.41113549      0.20568865     -0.05026472 H
atom_frac       0.73829682      0.71994664      0.11208055 H
atom_frac       0.41112230      0.79426125      1.05022574 H
atom_frac       0.99444290      0.10479586      0.56675945 H
atom_frac       0.26174898      0.28001011      0.88788950 H
atom_frac       0.14763701     -0.15371056      0.30254761 H
atom_frac       0.65934751      0.39487625     -0.09479977 H
atom_frac       0.66679965      0.57702722      0.30380386 H
atom_frac       1.21348934      0.69815969      1.11159266 H
atom_frac       0.96225550      0.25234216      0.45848942 H
atom_frac       0.43943370      0.31873819      0.76281597 H
atom_frac       0.85231364      1.15365627      0.69735228 H
atom_frac       0.34064999      0.60507278      1.09476885 H
atom_frac       0.33318867      0.42295811      0.69625336 H
atom_frac      -0.21349712      0.30178721     -0.11162511 H
atom_frac       0.03772974      0.74758641      0.54136306 H
atom_frac       0.56057078      0.68115643      0.23710487 H
atom_frac       0.25683885     -0.04486422      0.44333816 H
atom_frac       0.70619868      0.43320205      0.12491184 H
atom_frac       0.76134868      0.68287794      0.46326839 H
atom_frac       1.17611619      0.66774164      0.88972628 H
atom_frac       0.84877654      0.14781548      0.31851970 H
atom_frac       0.35772527      0.21663147      0.59179236 H
atom_frac       0.74314597      1.04481808      0.55651220 H
atom_frac       0.29379131      0.56674184      0.87506382 H
atom_frac       0.23866824      0.31714976      0.53673537 H
atom_frac      -0.17613106      0.33220247      0.11024413 H
atom_frac       0.15121060      0.85207615      0.68137600 H
atom_frac       0.64225153      0.78328900      0.40810814 H
atom_frac       0.17687385     -0.01111315      0.29496765 H
atom_frac       0.55623176      0.35730706      0.06186102 H
atom_frac       0.81915673      0.64054642      0.28695772 H
atom_frac       1.24336361      0.80946617      0.98486017 H
atom_frac       0.99446383      0.17116258      0.29948368 H
atom_frac       0.35871798      0.17519576      0.79592148 H
atom_frac       0.82306280      1.01105296      0.70493937 H
atom_frac       0.44375905      0.64264108      0.93809853 H
atom_frac       0.18082274      0.35939709      0.71309080 H
atom_frac      -0.24337688      0.19047825      0.01510593 H
atom_frac       0.00552310      0.82873310      0.70042325 H
atom_frac       0.64124243      0.82470135      0.20397901 H
atom_frac       0.08571514     -0.08584987      0.49798621 N
atom_frac      -0.35253078      0.26446797      0.04038787 N
atom_frac       0.74080328      0.74148039      0.23867317 N
atom_frac       0.35251875      0.73547862      0.95957599 N
atom_frac       0.91428487      0.08579897      0.50197875 N
atom_frac       0.25920589      0.25847305      0.76128289 N
atom_frac       0.63986647      0.19189538      0.36792958 O
atom_frac       0.77792741      0.41773823      0.36949144 O
atom_frac       0.53742516      0.32338302      0.39238711 O
initial_moment 2.0
atom_frac       0.80924720      0.35771053      0.64374337 O
initial_moment -1.0
atom_frac       0.58054986      0.21111935      0.66657567 O
atom_frac       0.65533729      0.44768417      0.64974751 O
atom_frac       0.36011765      0.80805988      0.63207213 O
initial_moment -1.0
atom_frac       0.22211092      0.58223296      0.63043095 O
atom_frac       0.46256294      0.67655571      0.60757476 O
atom_frac       0.19079602      0.64223697      0.35625147 O
atom_frac       0.41936972      0.78884533      0.33339488 O
atom_frac       0.34462610      0.55223269      0.35020466 O
# 
# What follows is the current estimated Hessian matrix constructed by the BFGS algorithm.
# This is NOT the true Hessian matrix of the system.
# If you do not want this information here, switch it off using the "hessian_to_restart_geometry" keyword.
# 
trust_radius             0.2000000030
hessian_file
