lattice_vector     11.44057932     -6.28898809     -0.31059128
lattice_vector      0.32476398     13.52027157     -0.31243895
lattice_vector     -0.31361580     -0.56856663      7.98502294
atom_frac       0.14768739     -0.11644944      0.31052961 C
atom_frac       0.64371340      0.36085793      0.05314525 C
atom_frac       0.74288397      0.65400518      0.33124809 C
atom_frac       1.22860877      0.72190972      0.97628433 C
atom_frac       0.89034636      0.16360260      0.38524627 C
atom_frac       0.39588350      0.26244288      0.76612220 C
atom_frac       0.80864554      1.08779439      0.64827773 C
atom_frac       0.36989984      0.64820987      0.95403568 C
atom_frac       0.28765565      0.36632598      0.69698226 C
atom_frac      -0.22500296      0.27566268      0.02493099 C
atom_frac       0.06875522      0.80997876      0.57595597 C
atom_frac       0.63712495      0.76017162      0.26685265 C
atom_frac       0.53994568     -0.00748265      0.34747249 C
atom_frac      -0.01876782      0.53349430      0.35262990 C
atom_frac       0.43756470      0.42903718      0.36984326 C
atom_frac       0.02634272      0.45776398      0.64694101 C
atom_frac       0.46162160      0.00842839      0.65604281 C
atom_frac       0.57556879      0.57854449      0.63672707 C
atom_frac       0.58125311      0.09903524      0.43711130 C
atom_frac       0.88859439      0.46149408      0.43604802 C
atom_frac       0.51621626      0.40497291      0.45563890 C
atom_frac       0.91171108      0.42173369      0.58846028 C
atom_frac       0.54262934      0.10680189      0.59842549 C
atom_frac       0.58740898      0.48181900      0.59388220 C
atom_frac       0.42012927      0.90194150      0.56663174 C
atom_frac       0.11926380      0.53222415      0.56606367 C
atom_frac       0.49661289      0.60237900      0.55037357 C
atom_frac       0.09597924      0.57132730      0.41280070 C
atom_frac       0.45944718      0.89392456      0.40571741 C
atom_frac       0.42606257      0.52576431      0.41121329 C
atom_frac       0.58482030     -0.01572120      0.14384717 Cl
atom_frac      -0.04438842      0.57577219      0.16349603 Cl
atom_frac       0.33452649      0.32272940      0.22035766 Cl
atom_frac       0.05087997      0.41175524      0.83321469 Cl
atom_frac       0.41413412      0.01726047      0.85707864 Cl
atom_frac       0.67400431      0.68221443      0.79335486 Cl
atom_frac       0.66661838      0.32614517      0.54117378 V
initial_moment 2.0
atom_frac       0.34077922      0.67548510      0.46513293 V
initial_moment 2.0
atom_frac       0.14959652     -0.02501102      0.53082015 H
atom_frac      -0.36025425      0.22918555      0.17655198 H
atom_frac       0.81551573      0.81743181      0.27477479 H
atom_frac       0.36354653      0.77355158      0.82410693 H
atom_frac       0.73486909      0.02627124      0.40875258 H
atom_frac       0.23123416      0.22896712      0.82730971 H
atom_frac       0.01628017     -0.09481195      0.43289102 H
atom_frac      -0.39931555      0.19875948     -0.03271790 H
atom_frac       0.73843800      0.71980412      0.11109296 H
atom_frac       0.40333699      0.80838990      1.03251919 H
atom_frac       0.84912788      0.00367359      0.44712051 H
atom_frac       0.33145139      0.34073215      0.93565042 H
atom_frac       0.08839822     -0.19668716      0.24076732 H
atom_frac       0.65647302      0.38552030     -0.07313536 H
atom_frac       0.66078026      0.57814010      0.30746734 H
atom_frac       1.21068984      0.69585534      1.10127908 H
atom_frac       0.97362503      0.20981380      0.45718672 H
atom_frac       0.47961133      0.33627268      0.77474789 H
atom_frac       0.89325673      1.11643267      0.71346262 H
atom_frac       0.35831816      0.62523145      1.08130612 H
atom_frac       0.36836074      0.44208425      0.69152568 H
atom_frac      -0.20385699      0.30577920     -0.09714014 H
atom_frac       0.00974803      0.72981316      0.50570009 H
atom_frac       0.55877284      0.68303338      0.22668212 H
atom_frac       0.22815740     -0.11731652      0.34628823 H
atom_frac       0.70731540      0.42552507      0.14476679 H
atom_frac       0.75664625      0.68427407      0.46468357 H
atom_frac       1.17004783      0.65567532      0.88143335 H
atom_frac       0.84528854      0.21405985      0.38358861 H
atom_frac       0.37553897      0.22363616      0.63627875 H
atom_frac       0.78300630      1.15394193      0.66403917 H
atom_frac       0.30904866      0.58075738      0.86299678 H
atom_frac       0.26223912      0.31824956      0.57279845 H
atom_frac      -0.16449166      0.33675066      0.12356475 H
atom_frac       0.14946456      0.80945886      0.61254079 H
atom_frac       0.63598610      0.78256325      0.40067041 H
atom_frac       0.16362138     -0.04784164      0.23703728 H
atom_frac       0.55770147      0.34214328      0.09004672 H
atom_frac       0.81284037      0.63758881      0.29014260 H
atom_frac       1.22129482      0.79808241      0.96568064 H
atom_frac       0.90194987      0.13658689      0.25805720 H
atom_frac       0.39670473      0.20411606      0.84950562 H
atom_frac       0.74482899      1.01180260      0.69385417 H
atom_frac       0.45744466      0.67173119      0.91955380 H
atom_frac       0.22080640      0.38695099      0.73999793 H
atom_frac      -0.22424433      0.19569721      0.02730787 H
atom_frac       0.02813534      0.82646787      0.68468486 H
atom_frac       0.64147736      0.82608042      0.19521496 H
atom_frac       0.09403458     -0.10052224      0.46533357 N
atom_frac      -0.34246115      0.25848536      0.05879584 N
atom_frac       0.73891856      0.74146144      0.23727238 N
atom_frac       0.34812102      0.74566551      0.94328472 N
atom_frac       0.81718545      0.06258039      0.46650574 N
atom_frac       0.30745207      0.29800614      0.81593776 N
atom_frac       0.65662322      0.19282304      0.38066602 O
atom_frac       0.78133599      0.42326479      0.38591726 O
atom_frac       0.52906366      0.31434152      0.41782024 O
initial_moment 1.0
atom_frac       0.82311918      0.35257586      0.65657809 O
initial_moment 1.0
atom_frac       0.58707757      0.20752402      0.68790357 O
atom_frac       0.65967518      0.45497267      0.67257001 O
atom_frac       0.34529755      0.80779852      0.62270847 O
initial_moment 0.0
atom_frac       0.22651427      0.57306120      0.61838785 O
atom_frac       0.48074763      0.69128032      0.58967490 O
atom_frac       0.18362732      0.64163216      0.34538010 O
atom_frac       0.41701953      0.79342339      0.31736006 O
atom_frac       0.35213054      0.55023069      0.33295557 O
