# 
# This is the geometry file that corresponds to the current relaxation step.
# If you do not want this file to be written, set the "write_restart_geometry" flag to .false.
#  aims_uuid : 6DCB3B66-6448-408B-A544-7ABE27AE55E5                                
# 
lattice_vector     11.44057932     -6.28898809     -0.31059128
lattice_vector      0.32476398     13.52027157     -0.31243895
lattice_vector     -0.31361580     -0.56856663      7.98502294
atom_frac       0.17560102     -0.10849670      0.31766962 C
atom_frac       0.63703005      0.35660844      0.05462340 C
atom_frac       0.73323654      0.64737562      0.31535421 C
atom_frac       1.23034018      0.72285604      0.97639228 C
atom_frac       0.89200071      0.16838704      0.39072452 C
atom_frac       0.38504530      0.25494261      0.76371804 C
atom_frac       0.80847786      1.10054178      0.65672872 C
atom_frac       0.36855038      0.64644957      0.95159465 C
atom_frac       0.27941010      0.36096233      0.69975435 C
atom_frac      -0.22762290      0.27703315      0.02692391 C
atom_frac       0.10097211      0.82195167      0.58791636 C
atom_frac       0.62790733      0.75319789      0.25142120 C
atom_frac       0.53934472     -0.00797446      0.34707574 C
atom_frac      -0.02087434      0.53580056      0.35398929 C
atom_frac       0.43255255      0.42531783      0.37045777 C
atom_frac       0.02413142      0.46031814      0.64915484 C
atom_frac       0.46128218      0.00742314      0.65619236 C
atom_frac       0.57231256      0.57626533      0.63533575 C
atom_frac       0.57991418      0.09838502      0.43702159 C
atom_frac       0.88651394      0.46343401      0.43710239 C
atom_frac       0.51150250      0.40171553      0.45640121 C
atom_frac       0.90973862      0.42403098      0.58958809 C
atom_frac       0.54146591      0.10604663      0.59845811 C
atom_frac       0.58294828      0.47894534      0.59395292 C
atom_frac       0.42080690      0.90109999      0.56660900 C
atom_frac       0.11688241      0.53353552      0.56692418 C
atom_frac       0.49321425      0.59972787      0.54906130 C
atom_frac       0.09367501      0.57261936      0.41390972 C
atom_frac       0.45949384      0.89315116      0.40557487 C
atom_frac       0.42196514      0.52257911      0.41115181 C
atom_frac       0.58363302     -0.01549389      0.14462517 Cl
atom_frac      -0.04524181      0.57957466      0.16721707 Cl
atom_frac       0.33111121      0.32028443      0.22056265 Cl
atom_frac       0.04815776      0.41508501      0.83467062 Cl
atom_frac       0.41400767      0.01545288      0.85595641 Cl
atom_frac       0.67228549      0.68051369      0.78725487 Cl
atom_frac       0.66429302      0.32581027      0.54120251 V
atom_frac       0.33879147      0.67389096      0.46369983 V
atom_frac       0.19817469     -0.01436845      0.54423073 H
atom_frac      -0.36255535      0.22709642      0.17859907 H
atom_frac       0.80108685      0.80117793      0.22742361 H
atom_frac       0.36440776      0.77294096      0.82324084 H
atom_frac       0.73092664      0.03931208      0.41886280 H
atom_frac       0.21797810      0.21748581      0.81582790 H
atom_frac       0.06400842     -0.06986204      0.45898716 H
atom_frac      -0.40193758      0.19571002     -0.03045587 H
atom_frac       0.71262641      0.69693564      0.08519555 H
atom_frac       0.40490743      0.80717865      1.03152491 H
atom_frac       0.83979007      0.01001631      0.45870701 H
atom_frac       0.31570161      0.32615636      0.93556285 H
atom_frac       0.10815867     -0.18598978      0.25131779 H
atom_frac       0.64941281      0.38142371     -0.07160887 H
atom_frac       0.65053010      0.57204200      0.30573277 H
atom_frac       1.21196608      0.69578976      1.10073385 H
atom_frac       0.97619775      0.20905768      0.46070659 H
atom_frac       0.46851043      0.32929421      0.77716785 H
atom_frac       0.89122087      1.12013898      0.72072190 H
atom_frac       0.35650459      0.62283803      1.07850335 H
atom_frac       0.36153439      0.43580138      0.69796179 H
atom_frac      -0.20724226      0.30769824     -0.09489321 H
atom_frac       0.03206367      0.74613461      0.51977724 H
atom_frac       0.54642391      0.67708220      0.22539109 H
atom_frac       0.25269292     -0.11786209      0.34255769 H
atom_frac       0.69949728      0.42203026      0.14651035 H
atom_frac       0.75398959      0.68609029      0.44530278 H
atom_frac       1.17093618      0.65774255      0.88100653 H
atom_frac       0.85445617      0.22510129      0.38816618 H
atom_frac       0.36764072      0.21975218      0.63214180 H
atom_frac       0.79305217      1.17327499      0.67249818 H
atom_frac       0.30695103      0.57979320      0.86033495 H
atom_frac       0.25394166      0.31598197      0.57348395 H
atom_frac      -0.16819063      0.33905454      0.12555303 H
atom_frac       0.17646410      0.80980072      0.61479020 H
atom_frac       0.63701805      0.78254572      0.38477107 H
atom_frac       0.19456297     -0.03828344      0.24626804 H
atom_frac       0.55042909      0.33593953      0.09076385 H
atom_frac       0.80059901      0.62757874      0.27232225 H
atom_frac       1.22414706      0.79978982      0.96812607 H
atom_frac       0.89999631      0.13734365      0.26393254 H
atom_frac       0.38537303      0.19464036      0.84356323 H
atom_frac       0.73906891      1.02864946      0.70351939 H
atom_frac       0.45567385      0.66842564      0.91662564 H
atom_frac       0.21367241      0.38276276      0.74424226 H
atom_frac      -0.22357995      0.19859317      0.02902395 H
atom_frac       0.06996156      0.84522754      0.70245409 H
atom_frac       0.62972257      0.81629341      0.17565136 H
atom_frac       0.13418187     -0.08611684      0.48043040 N
atom_frac      -0.34593225      0.25631464      0.06055580 N
atom_frac       0.72384602      0.72754096      0.21036665 N
atom_frac       0.34899480      0.74502283      0.94236958 N
atom_frac       0.81325064      0.07180424      0.47526926 N
atom_frac       0.29501114      0.28777528      0.81317103 N
atom_frac       0.65456339      0.19221874      0.38078966 O
atom_frac       0.77919057      0.42430231      0.38709614 O
atom_frac       0.52495893      0.31152805      0.41940145 O
atom_frac       0.82115236      0.35449100      0.65702506 O
atom_frac       0.58517117      0.20637994      0.68731499 O
atom_frac       0.65507775      0.45237867      0.67297651 O
atom_frac       0.34652427      0.80704520      0.62295228 O
atom_frac       0.22417664      0.57338165      0.61751409 O
atom_frac       0.47860257      0.68927064      0.58641449 O
atom_frac       0.18165493      0.64205805      0.34624295 O
atom_frac       0.41647628      0.79293646      0.31696442 O
atom_frac       0.34922460      0.54813820      0.33214297 O
# 
# What follows is the current estimated Hessian matrix constructed by the BFGS algorithm.
# This is NOT the true Hessian matrix of the system.
# If you do not want this information here, switch it off using the "hessian_to_restart_geometry" keyword.
# 
trust_radius             0.0130197639
hessian_file
