# 
# This is the geometry file that corresponds to the current relaxation step.
# If you do not want this file to be written, set the "write_restart_geometry" flag to .false.
#  aims_uuid : 2BADD8D0-344A-41E1-A54A-CF59703E4FD4                                
# 
lattice_vector     11.37164067     -6.55781291     -0.00721094
lattice_vector      0.09500229     13.11857313      0.00679446
lattice_vector      0.00591031     -0.01146128      8.91621217
atom_frac       0.28542607      0.07814245      0.36426298 C
atom_frac       0.91103524      0.27158824      0.22549082 C
atom_frac       0.70908813      0.62163227      0.20257299 C
atom_frac       0.87265970      0.63914543      0.79450832 C
atom_frac       0.84578451      0.13686922      0.65167108 C
atom_frac       0.37445855      0.24543811      0.83730714 C
atom_frac       0.71499504      0.92140986      0.63618273 C
atom_frac       0.08908573      0.72998259      0.77264560 C
atom_frac       0.28865483      0.37488708      0.79697471 C
atom_frac       0.12751323      0.36395110      0.20098469 C
atom_frac       0.15521480      0.86271387      0.34662622 C
atom_frac       0.62605702      0.75381443      0.16574645 C
atom_frac       0.55506703      0.01740187      0.35958043 C
atom_frac      -0.01722953      0.54219103      0.36368602 C
atom_frac       0.45258259      0.43617856      0.37112685 C
atom_frac       0.01683690      0.45653565      0.63745137 C
atom_frac       0.44621028     -0.01645448      0.64297594 C
atom_frac       0.54612317      0.56368183      0.63179419 C
atom_frac       0.59450121      0.11194116      0.45811594 C
atom_frac       0.88713701      0.48048873      0.45880149 C
atom_frac       0.51616815      0.40374202      0.46685034 C
atom_frac       0.90469862      0.43418077      0.60011129 C
atom_frac       0.53610030      0.09429652      0.60382239 C
atom_frac       0.56554327      0.47029149      0.60020384 C
atom_frac       0.40695672      0.88889863      0.54436718 C
atom_frac       0.11261456      0.51814080      0.54245437 C
atom_frac       0.48287239      0.59630673      0.53586397 C
atom_frac       0.09485327      0.56424177      0.40064813 C
atom_frac       0.46541356      0.90649556      0.39912206 C
atom_frac       0.43318502      0.52957031      0.40269854 C
atom_frac       0.61524246      0.03622991      0.18203634 Cl
atom_frac      -0.03993036      0.58482359      0.18804250 Cl
atom_frac       0.40299124      0.36241230      0.20171984 Cl
atom_frac       0.03961287      0.41486428      0.81376427 Cl
atom_frac       0.38551334     -0.03568485      0.82026842 Cl
atom_frac       0.59521119      0.63712108      0.80146332 Cl
atom_frac       0.66472558      0.33295190      0.57092549 Fe
atom_frac       0.33572161      0.66861048      0.43092622 Fe
atom_frac       0.11578464     -0.01804912      0.44757193 H
atom_frac       0.00788138      0.18602142      0.21013624 H
atom_frac       0.60865288      0.65395788      0.35249952 H
atom_frac      -0.00734010      0.81647338      0.77559722 H
atom_frac       0.88428388      0.01662470      0.55167582 H
atom_frac       0.39133090      0.34398889      0.64928593 H
atom_frac       0.12054378     -0.00907763      0.26634801 H
atom_frac       0.00224506      0.24788463      0.05383422 H
atom_frac       0.74262250      0.76604575      0.32945743 H
atom_frac      -0.00247759      0.76099220      0.93732870 H
atom_frac       0.88031155      0.00873381      0.73283880 H
atom_frac       0.25807619      0.23060663      0.67185195 H
atom_frac       0.33334822      0.07742053      0.26529729 H
atom_frac       0.90963127      0.34413355      0.16878901 H
atom_frac       0.78025672      0.67287275      0.12507803 H
atom_frac       0.86867732      0.56241032      0.84650293 H
atom_frac       0.80123098      0.14187301      0.75176702 H
atom_frac       0.30451479      0.18902361      0.91380975 H
atom_frac       0.66761133      0.92278714      0.73536435 H
atom_frac       0.08941442      0.65889713      0.83464748 H
atom_frac       0.21674790      0.32295038      0.87319816 H
atom_frac       0.13144086      0.44237434      0.15469139 H
atom_frac       0.20009338      0.85837992      0.24648077 H
atom_frac       0.69589407      0.80970093      0.08879457 H
atom_frac       0.32755464      0.06772258      0.46331491 H
atom_frac       0.92345190      0.28946859      0.34492143 H
atom_frac       0.63469684      0.55374162      0.14202813 H
atom_frac       0.86212081      0.62556794      0.67413137 H
atom_frac       0.80371255      0.14959785      0.55414020 H
atom_frac       0.44595985      0.31675604      0.89760332 H
atom_frac       0.67251205      0.93148397      0.53727424 H
atom_frac       0.07759604      0.70856361      0.65406042 H
atom_frac       0.36190341      0.44329048      0.85859777 H
atom_frac       0.13813255      0.37339471      0.32182660 H
atom_frac       0.19712165      0.84972743      0.44412535 H
atom_frac       0.55348233      0.68339919      0.10572977 H
atom_frac       0.28385973      0.16007438      0.36860256 H
atom_frac       0.82967488      0.19079339      0.20541842 H
atom_frac       0.73752161      0.58178267      0.28792240 H
atom_frac       0.80371727      0.65410566      0.83726387 H
atom_frac       0.93776565      0.20345459      0.65577408 H
atom_frac       0.40878261      0.19627304      0.77826613 H
atom_frac       0.71632441      0.83934384      0.63230644 H
atom_frac       0.17061702      0.81102135      0.79085460 H
atom_frac       0.26061207      0.41428760      0.71052422 H
atom_frac       0.19644055      0.35054652      0.15459378 H
atom_frac       0.06333894      0.79592428      0.34192458 H
atom_frac       0.59340165      0.80389345      0.22606494 H
atom_frac       0.16359794     -0.02064274      0.35598569 N
atom_frac       0.01133881      0.26078458      0.16722419 N
atom_frac       0.67279662      0.70093212      0.27307241 N
atom_frac      -0.01117096      0.74332467      0.82489335 N
atom_frac       0.83697140      0.02000411      0.64327966 N
atom_frac       0.32703411      0.29660404      0.72839662 N
atom_frac       0.68005584      0.21465288      0.43210523 O
atom_frac       0.78350997      0.46103569      0.43276951 O
atom_frac       0.53476750      0.31605550      0.44213860 O
atom_frac       0.81420770      0.37638973      0.68234288 O
atom_frac       0.57167444      0.18477564      0.68848462 O
atom_frac       0.62629861      0.43840514      0.68573162 O
atom_frac       0.32137481      0.78611362      0.56930188 O
atom_frac       0.21610789      0.53781142      0.56982221 O
atom_frac       0.46460085      0.68418107      0.56034105 O
atom_frac       0.18478931      0.62212319      0.31747895 O
atom_frac       0.42977566      0.81557604      0.31545954 O
atom_frac       0.37249666      0.56159992      0.31726167 O
# 
# What follows is the current estimated Hessian matrix constructed by the BFGS algorithm.
# This is NOT the true Hessian matrix of the system.
# If you do not want this information here, switch it off using the "hessian_to_restart_geometry" keyword.
# 
trust_radius             0.2000000030
hessian_file
