lattice_vector     11.37164067     -6.55781291     -0.00721094
lattice_vector      0.09500229     13.11857313      0.00679446
lattice_vector      0.00591031     -0.01146128      8.91621217
atom_frac       0.29056274      0.07740759      0.35147263 C
atom_frac       0.91262707      0.26426216      0.23894527 C
atom_frac       0.71336266      0.62375468      0.20245112 C
atom_frac       0.87125111      0.64464760      0.78203332 C
atom_frac       0.83875525      0.13776213      0.66855368 C
atom_frac       0.36598477      0.24009893      0.82731346 C
atom_frac       0.70947173      0.92234851      0.64750581 C
atom_frac       0.08796990      0.73528177      0.76324052 C
atom_frac       0.28471443      0.37448299      0.79651162 C
atom_frac       0.12923113      0.35606387      0.21603881 C
atom_frac       0.16089341      0.86197622      0.33156906 C
atom_frac       0.63435625      0.76021766      0.17463269 C
atom_frac       0.55524148      0.01796358      0.35839580 C
atom_frac      -0.01759772      0.54096577      0.36116410 C
atom_frac       0.45446733      0.43764169      0.36913297 C
atom_frac       0.01731718      0.45836185      0.63743235 C
atom_frac       0.44610729     -0.01643476      0.64183328 C
atom_frac       0.54461847      0.56289774      0.63214220 C
atom_frac       0.59471746      0.11219426      0.45746611 C
atom_frac       0.88728641      0.48065048      0.45736925 C
atom_frac       0.51685654      0.40441775      0.46584416 C
atom_frac       0.90510936      0.43568178      0.59962578 C
atom_frac       0.53614777      0.09444058      0.60304698 C
atom_frac       0.56476949      0.46995201      0.60029575 C
atom_frac       0.40689519      0.88915635      0.54279089 C
atom_frac       0.11251526      0.51850465      0.54127727 C
atom_frac       0.48242141      0.59622493      0.53534920 C
atom_frac       0.09460283      0.56341082      0.39858288 C
atom_frac       0.46552164      0.90690029      0.39765955 C
atom_frac       0.43431417      0.53055985      0.40097839 C
atom_frac       0.61521233      0.03764856      0.18057344 Cl
atom_frac      -0.04058693      0.58182541      0.18475100 Cl
atom_frac       0.40749233      0.36548357      0.19823654 Cl
atom_frac       0.04007443      0.41786755      0.81420117 Cl
atom_frac       0.38561971     -0.03636341      0.81938568 Cl
atom_frac       0.59170808      0.63503929      0.80300307 Cl
atom_frac       0.66498191      0.33352503      0.57041293 Fe
initial_moment 5.0
atom_frac       0.33557680      0.66858759      0.42927154 Fe
initial_moment -5.0
atom_frac       0.11938299     -0.01888820      0.42923558 H
atom_frac       0.01099246      0.18015767      0.25238360 H
atom_frac       0.60975644      0.65118493      0.35320180 H
atom_frac      -0.00939129      0.82025552      0.74588856 H
atom_frac       0.88080347      0.01911640      0.57045432 H
atom_frac       0.39022060      0.34829182      0.64779989 H
atom_frac       0.12786646     -0.00972801      0.24814270 H
atom_frac       0.00410352      0.22398034      0.08381155 H
atom_frac       0.74512784      0.76238943      0.34039889 H
atom_frac      -0.00460386      0.77669389      0.91522857 H
atom_frac       0.87187907      0.00935239      0.75141451 H
atom_frac       0.25535725      0.23601129      0.65991802 H
atom_frac       0.34027263      0.07741073      0.25404917 H
atom_frac       0.91180415      0.33181580      0.16939846 H
atom_frac       0.78779151      0.67798307      0.13077196 H
atom_frac       0.86799249      0.57181816      0.84390509 H
atom_frac       0.78999081      0.14043762      0.76559362 H
atom_frac       0.29406891      0.18219475      0.90040192 H
atom_frac       0.65964285      0.92164375      0.74517033 H
atom_frac       0.08755461      0.66764490      0.83388245 H
atom_frac       0.20995080      0.31979064      0.86746730 H
atom_frac       0.13146870      0.42893338      0.15531354 H
atom_frac       0.20927515      0.85884086      0.23439319 H
atom_frac       0.70601299      0.81722451      0.10060549 H
atom_frac       0.33084611      0.06620394      0.45183979 H
atom_frac       0.92377500      0.29153856      0.35550235 H
atom_frac       0.64063488      0.56021060      0.13513661 H
atom_frac       0.86051030      0.62336406      0.66340541 H
atom_frac       0.80028488      0.15197872      0.56839332 H
atom_frac       0.43777173      0.30769664      0.89171899 H
atom_frac       0.66918631      0.93405117      0.54747593 H
atom_frac       0.07799676      0.70775890      0.64685537 H
atom_frac       0.35658342      0.43859787      0.86425210 H
atom_frac       0.14129616      0.37714806      0.33479695 H
atom_frac       0.19963871      0.84811090      0.43170909 H
atom_frac       0.56127388      0.69327626      0.11111777 H
atom_frac       0.28891717      0.15931958      0.35592530 H
atom_frac       0.83145038      0.18210175      0.22488040 H
atom_frac       0.73756744      0.57852033      0.28530592 H
atom_frac       0.80210239      0.66158933      0.81860580 H
atom_frac       0.93018126      0.20469159      0.67893901 H
atom_frac       0.39908309      0.19134780      0.76494520 H
atom_frac       0.71133959      0.84058353      0.64207228 H
atom_frac       0.16926907      0.81724633      0.77797426 H
atom_frac       0.26044578      0.41904830      0.71262939 H
atom_frac       0.19823588      0.33955225      0.17741847 H
atom_frac       0.06937782      0.79509428      0.32184856 H
atom_frac       0.60316433      0.81012656      0.23824848 H
atom_frac       0.16893516     -0.02144642      0.33974470 N
atom_frac       0.01341888      0.24933895      0.19380424 N
atom_frac       0.67669162      0.70098362      0.27829346 N
atom_frac      -0.01286368      0.75102498      0.80548759 N
atom_frac       0.83098286      0.02130526      0.65982747 N
atom_frac       0.32313701      0.29806641      0.72232474 N
atom_frac       0.68055181      0.21491509      0.43229956 O
atom_frac       0.78351765      0.46128512      0.43170284 O
atom_frac       0.53559119      0.31685230      0.44097688 O
initial_moment 1.0
atom_frac       0.81463132      0.37841182      0.68207276 O
initial_moment -1.0
atom_frac       0.57192315      0.18472082      0.68794927 O
atom_frac       0.62507206      0.43773989      0.68616726 O
atom_frac       0.32112397      0.78634406      0.56699041 O
initial_moment 0.0
atom_frac       0.21610401      0.53781632      0.56809739 O
atom_frac       0.46382462      0.68388984      0.55984744 O
atom_frac       0.18454098      0.62059430      0.31523262 O
atom_frac       0.42982790      0.81612036      0.31381808 O
atom_frac       0.37416573      0.56291687      0.31504596 O
