lattice_vector     11.37164067     -6.55781291     -0.00721094
lattice_vector      0.09500229     13.11857313      0.00679446
lattice_vector      0.00591031     -0.01146128      8.91621217
atom_frac       0.28563036      0.07652225      0.35714433 C
atom_frac       0.91245940      0.27316235      0.22053439 C
atom_frac       0.71144341      0.62702571      0.20704321 C
atom_frac       0.87104229      0.63787970      0.79745959 C
atom_frac       0.84796809      0.13880929      0.64642418 C
atom_frac       0.37662311      0.24616864      0.83866562 C
atom_frac       0.71429848      0.92351372      0.64287246 C
atom_frac       0.08747662      0.72680548      0.77914086 C
atom_frac       0.28865188      0.37301143      0.79304404 C
atom_frac       0.12890629      0.36201390      0.20265268 C
atom_frac       0.15202510      0.86121475      0.35348350 C
atom_frac       0.62352784      0.75392052      0.16149461 C
atom_frac       0.55437810      0.01742494      0.35796357 C
atom_frac      -0.01749421      0.54289757      0.36323212 C
atom_frac       0.45401994      0.43661158      0.36949171 C
atom_frac       0.01747508      0.45702085      0.63673315 C
atom_frac       0.44556044     -0.01741293      0.64203427 C
atom_frac       0.54602481      0.56343195      0.63051006 C
atom_frac       0.59319197      0.11173871      0.45695096 C
atom_frac       0.88721888      0.48125482      0.45891878 C
atom_frac       0.51687389      0.40377019      0.46592260 C
atom_frac       0.90527983      0.43490396      0.60024894 C
atom_frac       0.53478460      0.09365887      0.60262239 C
atom_frac       0.56572732      0.47016809      0.59944726 C
atom_frac       0.40676161      0.88826574      0.54305994 C
atom_frac       0.11277017      0.51869169      0.54107012 C
atom_frac       0.48315268      0.59626160      0.53409093 C
atom_frac       0.09470424      0.56503249      0.39972851 C
atom_frac       0.46517203      0.90634621      0.39738857 C
atom_frac       0.43430482      0.52986311      0.40056106 C
atom_frac       0.61494235      0.03721299      0.18058184 Cl
atom_frac      -0.04087738      0.58548237      0.18793196 Cl
atom_frac       0.40584178      0.36350944      0.19936939 Cl
atom_frac       0.04085609      0.41443825      0.81203914 Cl
atom_frac       0.38496102     -0.03719301      0.81939216 Cl
atom_frac       0.59420426      0.63653324      0.80063710 Cl
atom_frac       0.66458846      0.33233158      0.57132345 Fe
atom_frac       0.33540851      0.66767034      0.42868811 Fe
atom_frac       0.11759552     -0.01386861      0.44710025 H
atom_frac       0.00715892      0.18486570      0.21704844 H
atom_frac       0.60676707      0.65744021      0.35170949 H
atom_frac      -0.00728050      0.81503647      0.78288808 H
atom_frac       0.88233916      0.01382113      0.55291622 H
atom_frac       0.39333310      0.34258514      0.64840492 H
atom_frac       0.11852795     -0.01186448      0.26552738 H
atom_frac       0.00496490      0.24313786      0.05632425 H
atom_frac       0.73952902      0.77175929      0.32916706 H
atom_frac      -0.00486706      0.75683379      0.94357857 H
atom_frac       0.88140116      0.01187946      0.73449137 H
atom_frac       0.26058217      0.22824321      0.67101650 H
atom_frac       0.33076504      0.07078599      0.25809697 H
atom_frac       0.91390876      0.34554782      0.15962080 H
atom_frac       0.78403409      0.67903281      0.13174296 H
atom_frac       0.86548725      0.56010827      0.84844795 H
atom_frac       0.80655292      0.14848659      0.74677140 H
atom_frac       0.30682177      0.19070048      0.91592532 H
atom_frac       0.66917756      0.92930206      0.74190208 H
atom_frac       0.08614332      0.65446246      0.84002121 H
atom_frac       0.21608557      0.32102437      0.86838414 H
atom_frac       0.13455433      0.43981469      0.15162741 H
atom_frac       0.19345420      0.85159613      0.25311166 H
atom_frac       0.69331354      0.80930310      0.08416837 H
atom_frac       0.32937865      0.06905245      0.45644075 H
atom_frac       0.92272697      0.29300303      0.33957510 H
atom_frac       0.63920748      0.55785438      0.14494509 H
atom_frac       0.86184004      0.62572623      0.67677544 H
atom_frac       0.80398841      0.14864710      0.54890319 H
atom_frac       0.44791010      0.31868713      0.89763869 H
atom_frac       0.67056714      0.93097940      0.54355526 H
atom_frac       0.07705925      0.70691483      0.66011513 H
atom_frac       0.36088823      0.44221680      0.85509918 H
atom_frac       0.13796168      0.37412680      0.32335067 H
atom_frac       0.19601946      0.85136394      0.45097816 H
atom_frac       0.55214914      0.68143022      0.10258314 H
atom_frac       0.28603031      0.15947482      0.35664640 H
atom_frac       0.83058967      0.19292474      0.20028945 H
atom_frac       0.73904362      0.58853775      0.29513944 H
atom_frac       0.80224707      0.65334690      0.83955037 H
atom_frac       0.94035787      0.20431629      0.64557411 H
atom_frac       0.41132941      0.19650183      0.78171817 H
atom_frac       0.71386013      0.84054247      0.64342125 H
atom_frac       0.16935332      0.80707088      0.79924218 H
atom_frac       0.26102108      0.41146341      0.70493447 H
atom_frac       0.19773217      0.34653065      0.16072364 H
atom_frac       0.05964462      0.79568057      0.35432105 H
atom_frac       0.58891105      0.80366597      0.21843554 H
atom_frac       0.16290908     -0.02090959      0.35555589 N
atom_frac       0.01247124      0.25907315      0.16919314 N
atom_frac       0.67133892      0.70481541      0.27277966 N
atom_frac      -0.01250279      0.74086040      0.83071828 N
atom_frac       0.83703595      0.02091303      0.64443841 N
atom_frac       0.32876870      0.29522546      0.72734915 N
atom_frac       0.67835841      0.21468041      0.43226429 O
atom_frac       0.78358640      0.46168997      0.43343244 O
atom_frac       0.53518512      0.31577095      0.44165442 O
atom_frac       0.81508770      0.37693736      0.68270003 O
atom_frac       0.57037674      0.18440452      0.68646583 O
atom_frac       0.62593747      0.43805075      0.68592070 O
atom_frac       0.32160945      0.78531997      0.56775436 O
atom_frac       0.21641066      0.53830358      0.56658804 O
atom_frac       0.46480400      0.68423185      0.55837015 O
atom_frac       0.18490281      0.62302126      0.31729654 O
atom_frac       0.42959680      0.81559434      0.31356390 O
atom_frac       0.37407234      0.56196214      0.31410878 O
