lattice_vector     11.37164067     -6.55781291     -0.00721094
lattice_vector      0.09500229     13.11857313      0.00679446
lattice_vector      0.00591031     -0.01146128      8.91621217
atom_frac       0.29888333      0.08170466      0.35872858 C
atom_frac       0.91480691      0.25532577      0.26230803 C
atom_frac       0.71167617      0.61974295      0.19820945 C
atom_frac       0.86990025      0.65149993      0.77491449 C
atom_frac       0.82349957      0.13134386      0.69387008 C
atom_frac       0.36797989      0.24387370      0.82295365 C
atom_frac       0.70118633      0.91831588      0.64127956 C
atom_frac       0.08520483      0.74464796      0.73787831 C
atom_frac       0.28820409      0.38013545      0.80169385 C
atom_frac       0.13008580      0.34852749      0.22500263 C
atom_frac       0.17653135      0.86867111      0.30621081 C
atom_frac       0.63185292      0.75602176      0.17692926 C
atom_frac       0.55529927      0.01775796      0.35846174 C
atom_frac      -0.01819568      0.54027736      0.36125061 C
atom_frac       0.45532155      0.43717806      0.36874402 C
atom_frac       0.01822984      0.45976283      0.63877010 C
atom_frac       0.44472363     -0.01772779      0.64157837 C
atom_frac       0.54471211      0.56286409      0.63123937 C
atom_frac       0.59380005      0.11186710      0.45802476 C
atom_frac       0.88716416      0.48072545      0.45843082 C
atom_frac       0.51706799      0.40381164      0.46652856 C
atom_frac       0.90581074      0.43657958      0.60116589 C
atom_frac       0.53447780      0.09342683      0.60317461 C
atom_frac       0.56479707      0.46966749      0.60078720 C
atom_frac       0.40622799      0.88815751      0.54202091 C
atom_frac       0.11287022      0.51930782      0.54158359 C
atom_frac       0.48299019      0.59624990      0.53343459 C
atom_frac       0.09422214      0.56345727      0.39885266 C
atom_frac       0.46552544      0.90659988      0.39685164 C
atom_frac       0.43524182      0.53037495      0.39919636 C
atom_frac       0.61751878      0.03824565      0.18199404 Cl
atom_frac      -0.04143833      0.58068501      0.18491854 Cl
atom_frac       0.40974244      0.36497843      0.19737934 Cl
atom_frac       0.04146499      0.41939509      0.81511875 Cl
atom_frac       0.38253457     -0.03821739      0.81805992 Cl
atom_frac       0.59021050      0.63501260      0.80264141 Cl
atom_frac       0.66490615      0.33274681      0.57323647 Fe
initial_moment 5.0
atom_frac       0.33512426      0.66729298      0.42677653 Fe
initial_moment 5.0
atom_frac       0.12251023     -0.02346440      0.40979139 H
atom_frac       0.01705804      0.17637836      0.28841540 H
atom_frac       0.61595761      0.65139021      0.35718590 H
atom_frac      -0.01698037      0.82366446      0.71164053 H
atom_frac       0.87755635      0.02352639      0.59023656 H
atom_frac       0.38423612      0.34873478      0.64293736 H
atom_frac       0.14689177      0.00131975      0.23194897 H
atom_frac       0.00131323      0.20281790      0.11444997 H
atom_frac       0.75094478      0.76212812      0.33290328 H
atom_frac      -0.00137349      0.79715242      0.88563015 H
atom_frac       0.85317280     -0.00129877      0.76807169 H
atom_frac       0.24918518      0.23800011      0.66681366 H
atom_frac       0.35742088      0.09255823      0.26650769 H
atom_frac       0.90989000      0.31649234      0.18447311 H
atom_frac       0.78418620      0.67230949      0.12281898 H
atom_frac       0.87318182      0.58550246      0.84506145 H
atom_frac       0.76421959      0.12390900      0.78363241 H
atom_frac       0.29966151      0.18781592      0.90164586 H
atom_frac       0.64263847      0.90742582      0.73350190 H
atom_frac       0.09004081      0.68344407      0.81572779 H
atom_frac       0.21550556      0.32750534      0.87662220 H
atom_frac       0.12673708      0.41447088      0.15484913 H
atom_frac       0.23581081      0.87607479      0.21646475 H
atom_frac       0.69991943      0.81179125      0.09796301 H
atom_frac       0.33142501      0.06226506      0.46056017 H
atom_frac       0.92986971      0.29144238      0.37487767 H
atom_frac       0.63634351      0.55642777      0.13439889 H
atom_frac       0.85206691      0.61988606      0.66015806 H
atom_frac       0.79514341      0.15393606      0.59083995 H
atom_frac       0.44348604      0.31197861      0.88137601 H
atom_frac       0.66863922      0.93776480      0.53945986 H
atom_frac       0.07021643      0.70856713      0.62529195 H
atom_frac       0.36336356      0.44321098      0.86592310 H
atom_frac       0.14798586      0.38019367      0.33970403 H
atom_frac       0.20487239      0.84608749      0.40925974 H
atom_frac       0.55606988      0.68776530      0.11875337 H
atom_frac       0.29389118      0.16135789      0.37191362 H
atom_frac       0.83407782      0.17187203      0.25791042 H
atom_frac       0.73702710      0.57431724      0.27937347 H
atom_frac       0.80144513      0.66904868      0.81272160 H
atom_frac       0.91235000      0.19818009      0.72143490 H
atom_frac       0.39691393      0.19322327      0.75684968 H
atom_frac       0.70620064      0.83867639      0.62805608 H
atom_frac       0.16594705      0.82808596      0.74236265 H
atom_frac       0.26317367      0.42582650      0.72049952 H
atom_frac       0.19852863      0.33100300      0.18714387 H
atom_frac       0.08767714      0.80184478      0.27864666 H
atom_frac       0.60321051      0.80687265      0.24288786 H
atom_frac       0.18028967     -0.01725829      0.32587522 N
atom_frac       0.01507341      0.23890027      0.21950371 N
atom_frac       0.67912995      0.69906243      0.27702602 N
atom_frac      -0.01506957      0.76110305      0.78055481 N
atom_frac       0.81976876      0.01728927      0.67415752 N
atom_frac       0.32087628      0.30092316      0.72291080 N
atom_frac       0.67937469      0.21469892      0.43474197 O
atom_frac       0.78337331      0.46141761      0.43381012 O
atom_frac       0.53568585      0.31595987      0.44261007 O
initial_moment -1.0
atom_frac       0.81554319      0.37885991      0.68379055 O
initial_moment -1.0
atom_frac       0.57004411      0.18390399      0.68747028 O
atom_frac       0.62460763      0.43749481      0.68770170 O
atom_frac       0.32064985      0.78532328      0.56530087 O
initial_moment 0.0
atom_frac       0.21666598      0.53862281      0.56619771 O
atom_frac       0.46434885      0.68408352      0.55737069 O
atom_frac       0.18449034      0.62118692      0.31622949 O
atom_frac       0.42997720      0.81613393      0.31255252 O
atom_frac       0.37540006      0.56252404      0.31230041 O
