lattice_vector     11.44057932     -6.28898809     -0.31059128
lattice_vector      0.32476398     13.52027157     -0.31243895
lattice_vector     -0.31361580     -0.56856663      7.98502294
atom_frac       0.18238191     -0.09780237      0.36996318 C
atom_frac       0.63803726      0.36730382      0.04067372 C
atom_frac       0.73784731      0.65339107      0.32025252 C
atom_frac       1.23443897      0.72116674      0.98293044 C
atom_frac       0.91098672      0.18406842      0.37742970 C
atom_frac       0.37075139      0.24361610      0.74420739 C
atom_frac       0.81763738      1.09778024      0.62996033 C
atom_frac       0.36194930      0.63263599      0.95930657 C
atom_frac       0.26212692      0.34653234      0.67969723 C
atom_frac      -0.23444605      0.27878203      0.01703303 C
atom_frac       0.08901365      0.81590233      0.62247771 C
atom_frac       0.62922192      0.75631061      0.25576078 C
atom_frac       0.53588819     -0.00876418      0.34159815 C
atom_frac      -0.01840308      0.53823036      0.35220738 C
atom_frac       0.43122617      0.42682049      0.36203739 C
atom_frac       0.01839421      0.46171645      0.64776965 C
atom_frac       0.46410249      0.00871040      0.65837858 C
atom_frac       0.56876139      0.57312276      0.63794404 C
atom_frac       0.57293931      0.09728972      0.42989307 C
atom_frac       0.88683886      0.46531329      0.43237978 C
atom_frac       0.51259950      0.40482100      0.44455802 C
atom_frac       0.90601393      0.42726253      0.58191913 C
atom_frac       0.53811254      0.10671901      0.59284870 C
atom_frac       0.58128212      0.47808052      0.58673920 C
atom_frac       0.42705084      0.90265671      0.57008286 C
atom_frac       0.11315236      0.53463351      0.56759801 C
atom_frac       0.48738745      0.59512191      0.55542442 C
atom_frac       0.09397696      0.57268477      0.41805881 C
atom_frac       0.46187745      0.89322746      0.40712756 C
atom_frac       0.41870506      0.52186258      0.41324321 C
atom_frac       0.58159767     -0.01701425      0.14184391 Cl
atom_frac      -0.03905767      0.58488119      0.16612141 Cl
atom_frac       0.33266667      0.32485392      0.20715184 Cl
atom_frac       0.03904948      0.41506502      0.83385599 Cl
atom_frac       0.41840055      0.01696050      0.85813771 Cl
atom_frac       0.66732452      0.67509224      0.79282322 Cl
atom_frac       0.66715184      0.32622287      0.52619708 V
atom_frac       0.33283928      0.67372401      0.47378064 V
atom_frac       0.12413784     -0.02637139      0.56145454 H
atom_frac      -0.37135573      0.23474100      0.16455210 H
atom_frac       0.80112060      0.80368123      0.22107060 H
atom_frac       0.37135436      0.76520186      0.83542592 H
atom_frac       0.87581141      0.02632311      0.43841204 H
atom_frac       0.19884943      0.19624153      0.77887769 H
atom_frac       0.02043815     -0.12624369      0.44133549 H
atom_frac      -0.40827693      0.20425413     -0.04384646 H
atom_frac       0.70973928      0.69573406      0.08810704 H
atom_frac       0.40826739      0.79568658      1.04382723 H
atom_frac       0.97955037      0.12616463      0.55851540 H
atom_frac       0.29022401      0.30418941      0.91184818 H
atom_frac       0.15899053     -0.18188581      0.31114785 H
atom_frac       0.65452145      0.39242550     -0.08505079 H
atom_frac       0.65670691      0.57654728      0.31293411 H
atom_frac       1.21181405      0.69008408      1.10414808 H
atom_frac       0.95205000      0.26905066      0.44177377 H
atom_frac       0.45216338      0.32021603      0.76209936 H
atom_frac       0.84108604      1.18186503      0.68882922 H
atom_frac       0.34544990      0.60750812      1.08502571 H
atom_frac       0.34326242      0.42338320      0.68703923 H
atom_frac      -0.21182344      0.30987628     -0.10417801 H
atom_frac       0.04796886      0.73091647      0.55814737 H
atom_frac       0.54780755      0.67971297      0.23786245 H
atom_frac       0.26935466     -0.06075360      0.43075763 H
atom_frac       0.70062178      0.43031728      0.13533659 H
atom_frac       0.75844326      0.69398080      0.44924756 H
atom_frac       1.17468593      0.66144609      0.88236207 H
atom_frac       0.82526551      0.16428891      0.32513062 H
atom_frac       0.35668397      0.20886850      0.61270228 H
atom_frac       0.73066202      1.06079104      0.56919039 H
atom_frac       0.29937393      0.56962734      0.86462969 H
atom_frac       0.24155367      0.30594795      0.55069977 H
atom_frac      -0.17469237      0.33849636      0.11760671 H
atom_frac       0.17473716      0.83570231      0.67479366 H
atom_frac       0.64328995      0.79105205      0.38726897 H
atom_frac       0.17665396     -0.04546785      0.27852737 H
atom_frac       0.55141316      0.35045353      0.07179003 H
atom_frac       0.80655121      0.63529373      0.27803261 H
atom_frac       1.23524888      0.80188111      0.98195612 H
atom_frac       0.96382880      0.17494573      0.27987944 H
atom_frac       0.37186504      0.18346202      0.82377617 H
atom_frac       0.82333291      1.04540162      0.72134658 H
atom_frac       0.44857750      0.64948653      0.92821352 H
atom_frac       0.19340960      0.36461589      0.72189254 H
atom_frac      -0.23525268      0.19806764      0.01798417 H
atom_frac       0.03615934      0.82501887      0.72001361 H
atom_frac       0.62811169      0.81647082      0.17620150 H
atom_frac       0.10069285     -0.10526747      0.49915536 N
atom_frac      -0.35150935      0.26358722      0.04786035 N
atom_frac       0.72423550      0.72987129      0.21186481 N
atom_frac       0.35150201      0.73635550      0.95211624 N
atom_frac       0.89929469      0.10522138      0.50072910 N
atom_frac       0.27573405      0.27005244      0.78809176 N
atom_frac       0.64265918      0.19293984      0.37329837 O
atom_frac       0.77704682      0.42374980      0.38015232 O
atom_frac       0.53496854      0.32068975      0.40209704 O
atom_frac       0.81052876      0.35719109      0.64549199 O
atom_frac       0.58115411      0.20951787      0.67256543 O
atom_frac       0.65254774      0.44744184      0.65688758 O
atom_frac       0.35733287      0.80700652      0.62667847 O
atom_frac       0.22294404      0.57619633      0.61982513 O
atom_frac       0.46502077      0.67925486      0.59788361 O
atom_frac       0.18946210      0.64275722      0.35448619 O
atom_frac       0.41883652      0.79042816      0.32741157 O
atom_frac       0.34744169      0.55250288      0.34309184 O
