lattice_vector 11.371641 -6.557813 -0.007211
lattice_vector 0.095002 13.118573 0.006794
lattice_vector 0.005910 -0.011461 8.916212

atom_frac 0.554378 0.017425 0.357964 C
atom_frac -0.017494 0.542898 0.363232 C
atom_frac 0.454020 0.436612 0.369492 C
atom_frac 0.017475 0.457021 0.636733 C
atom_frac 0.445560 -0.017413 0.642034 C
atom_frac 0.546025 0.563432 0.630510 C
atom_frac 0.593192 0.111739 0.456951 C
atom_frac 0.887219 0.481255 0.458919 C
atom_frac 0.516874 0.403770 0.465923 C
atom_frac 0.905280 0.434904 0.600249 C
atom_frac 0.534785 0.093659 0.602622 C
atom_frac 0.565727 0.470168 0.599447 C
atom_frac 0.406762 0.888266 0.543060 C
atom_frac 0.112770 0.518692 0.541070 C
atom_frac 0.483153 0.596262 0.534091 C
atom_frac 0.094704 0.565032 0.399729 C
atom_frac 0.465172 0.906346 0.397389 C
atom_frac 0.434305 0.529863 0.400561 C
atom_frac 0.614942 0.037213 0.180582 Cl
atom_frac -0.040877 0.585482 0.187932 Cl
atom_frac 0.405842 0.363509 0.199369 Cl
atom_frac 0.040856 0.414438 0.812039 Cl
atom_frac 0.384961 -0.037193 0.819392 Cl
atom_frac 0.594204 0.636533 0.800637 Cl
atom_frac 0.664588 0.332332 0.571323 Fe
    initial_moment 5
atom_frac 0.335409 0.667670 0.428688 Fe
    initial_moment 5
atom_frac 0.678358 0.214680 0.432264 O
atom_frac 0.783586 0.461690 0.433432 O
atom_frac 0.535185 0.315771 0.441654 O
    initial_moment -1
atom_frac 0.815088 0.376937 0.682700 O
    initial_moment -1
atom_frac 0.570377 0.184405 0.686466 O
atom_frac 0.625937 0.438051 0.685921 O
atom_frac 0.321609 0.785320 0.567754 O
atom_frac 0.216411 0.538304 0.566588 O
atom_frac 0.464804 0.684232 0.558370 O
atom_frac 0.184903 0.623021 0.317297 O
atom_frac 0.429597 0.815594 0.313564 O
atom_frac 0.374072 0.561962 0.314109 O
