# 
# This is the geometry file that corresponds to the current relaxation step.
# If you do not want this file to be written, set the "write_restart_geometry" flag to .false.
#  aims_uuid : E2CB2301-21B8-4B62-A6FE-E054CBE8E549                                
# 
lattice_vector     14.90675382     -2.51869737     -1.26013494
lattice_vector     -7.72884897     10.17009190      0.06991496
lattice_vector     -4.09148618      1.18571618      7.63380248
atom_frac       0.42064449      0.24127948     -0.07499844 C
atom_frac       0.80609332      0.38899361      0.00358426 C
atom_frac       1.13503006      0.77303296      0.88447054 C
atom_frac       0.79877404     -0.18074299      1.16783192 C
atom_frac       0.57966218      0.75889481      1.07547253 C
atom_frac       0.19404018      0.61123958      0.99628026 C
atom_frac      -0.13549251      0.22668226      0.11538323 C
atom_frac       0.20141385      1.18078023     -0.16802084 C
atom_frac       0.53758109      0.01957428      0.36948981 C
atom_frac       1.02392607      0.61833854      0.36845417 C
atom_frac       0.39259968      0.43814397      0.32453100 C
atom_frac      -0.02405659      0.38145717      0.63168963 C
atom_frac       0.46231728      0.98025182      0.63053317 C
atom_frac       0.60747712      0.56216106      0.67513472 C
atom_frac       0.56356528      0.14049197      0.40206919 C
atom_frac       0.93017522      0.55406860      0.44015729 C
atom_frac       0.51533643      0.46814555      0.38179505 C
atom_frac       0.91325782      0.43885153      0.58408825 C
atom_frac       0.52784333      0.12098749      0.54231304 C
atom_frac       0.62509972      0.53016816      0.56218992 C
atom_frac       0.43639136      0.85936085      0.59801269 C
atom_frac       0.06968328      0.44571357      0.55996153 C
atom_frac       0.48473457      0.53213236      0.61789365 C
atom_frac       0.08657969      0.56092025      0.41602460 C
atom_frac       0.47203555      0.87884062      0.45768882 C
atom_frac       0.37493314      0.47003581      0.43751972 C
atom_frac       0.57191426      0.03464236      0.19966002 Cl
atom_frac       1.05593451      0.76417071      0.21168991 Cl
atom_frac       0.25836099      0.36364573      0.10699923 Cl
atom_frac      -0.05608283      0.23559896      0.78841845 Cl
atom_frac       0.42790130      0.96518070      0.80025768 Cl
atom_frac       0.74171003      0.63658929      0.89268086 Cl
atom_frac       0.69570153      0.43161261      0.46442218 Fe
initial_moment 5.0
atom_frac       0.30412430      0.56821229      0.53554632 Fe
initial_moment 5.0
atom_frac       0.39899644      1.32609804      0.05112518 H
atom_frac      -0.32487450      0.17416162     -0.09193172 H
atom_frac       1.32438902      0.82577343      1.09203162 H
atom_frac       0.60111429     -0.32568020      0.94859385 H
atom_frac       0.39494189      1.39827704     -0.16051150 H
atom_frac      -0.19010526      0.30753693     -0.15517023 H
atom_frac       1.18947847      0.69193977      1.15492949 H
atom_frac       0.60518101     -0.39813057      1.16016585 H
atom_frac       0.38376477      0.21694630     -0.21573095 H
atom_frac       0.92069506      0.48652221      0.06529622 H
atom_frac       1.02092669      0.67224832      0.83663061 H
atom_frac       0.83494000     -0.14159063      1.29823746 H
atom_frac       0.61643583      0.78272623      1.21641853 H
atom_frac       0.07952643      0.51341356      0.93465839 H
atom_frac      -0.02139223      0.32746955      0.16308222 H
atom_frac       0.16547054      1.14180354     -0.29840211 H
atom_frac       0.38896618      0.13866465      0.00986239 H
atom_frac       0.76296408      0.34459765      0.10325931 H
atom_frac       1.16622337      0.81451318      0.77211082 H
atom_frac       0.83721210     -0.08385865      1.07518348 H
atom_frac       0.61161522      0.86182518      0.99119313 H
atom_frac       0.23725688      0.65597939      0.89659359 H
atom_frac      -0.16658793      0.18531813      0.22780983 H
atom_frac       0.16315852      1.08384677     -0.07534898 H
atom_frac       0.53669447      0.33018377     -0.01070909 H
atom_frac       0.75432644      0.42436648     -0.12391212 H
atom_frac       1.15697516      0.86168282      0.92925596 H
atom_frac       0.83896963     -0.23462452      1.19729373 H
atom_frac       0.46360005      0.67014123      1.01094596 H
atom_frac       0.24611557      0.57619008      1.12379601 H
atom_frac      -0.15751132      0.13796514      0.07060939 H
atom_frac       0.16092048      1.23433261     -0.19748706 H
atom_frac       0.35832226      1.29439151     -0.08219094 N
atom_frac      -0.21667339      0.26870156     -0.04206876 N
atom_frac       1.21624470      0.73107004      1.04195543 N
atom_frac       0.64186082     -0.29414880      1.08205491 N
atom_frac       0.61894730      0.27043679      0.32059420 O
atom_frac       0.85615460      0.58890491      0.38892697 O
atom_frac       0.54038682      0.44630720      0.27604542 O
initial_moment -1.0
atom_frac       0.83960903      0.39987541      0.66045375 O
initial_moment -1.0
atom_frac       0.56450615      0.23882670      0.58073315 O
atom_frac       0.73864153      0.55428969      0.61413034 O
atom_frac       0.38104660      0.72942476      0.67951698 O
atom_frac       0.14371333      0.41090008      0.61116877 O
atom_frac       0.45962230      0.55378633      0.72372291 O
atom_frac       0.16018227      0.59985772      0.33959898 O
atom_frac       0.43523623      0.76095673      0.41911353 O
atom_frac       0.26131839      0.44571014      0.38574571 O
