# 
# This is the geometry file that corresponds to the current relaxation step.
# If you do not want this file to be written, set the "write_restart_geometry" flag to .false.
#  aims_uuid : F6FE04E6-4CB5-4C79-AF1C-90B05AA19CFA                                
# 
lattice_vector     14.94448512     -2.41457269     -1.21680982
lattice_vector     -7.67413551     10.25793396      0.10287096
lattice_vector     -4.08259859      1.26878123      7.68638047
atom_frac       0.42672574      0.24755716     -0.06430279 C
atom_frac       0.81324384      0.39000579      0.00528709 C
atom_frac       1.14852820      0.78871170      0.89665459 C
atom_frac       0.78753632     -0.19198182      1.15249664 C
atom_frac       0.57324980      0.75243206      1.06426852 C
atom_frac       0.18677563      0.61005674      0.99474586 C
atom_frac      -0.14860387      0.21127518      0.10328956 C
atom_frac       0.21238579      1.19189157     -0.15258923 C
atom_frac       0.53536321      0.01928635      0.36734476 C
atom_frac       1.01824912      0.61374569      0.36375891 C
atom_frac       0.39660605      0.44314537      0.32680917 C
atom_frac      -0.01823971      0.38629516      0.63623913 C
atom_frac       0.46465689      0.98070211      0.63262194 C
atom_frac       0.60332239      0.55676066      0.67317188 C
atom_frac       0.56441814      0.14010361      0.40393648 C
atom_frac       0.92575619      0.54950359      0.43661025 C
atom_frac       0.51598315      0.46797453      0.38371990 C
atom_frac       0.91374143      0.43829133      0.58413053 C
atom_frac       0.53024871      0.12038328      0.54562865 C
atom_frac       0.62173170      0.52490448      0.56215791 C
atom_frac       0.43561106      0.85988745      0.59604145 C
atom_frac       0.07424651      0.45052945      0.56338159 C
atom_frac       0.48394668      0.53193295      0.61626395 C
atom_frac       0.08627450      0.56175803      0.41587773 C
atom_frac       0.46976411      0.87960093      0.45433107 C
atom_frac       0.37819673      0.47499785      0.43782544 C
atom_frac       0.56817846      0.03438417      0.19620607 Cl
atom_frac       1.04331355      0.75402777      0.20076435 Cl
atom_frac       0.26648775      0.37379639      0.11195275 Cl
atom_frac      -0.04332195      0.24599959      0.79921175 Cl
atom_frac       0.43182040      0.96560026      0.80373679 Cl
atom_frac       0.73347507      0.62617924      0.88799190 Cl
atom_frac       0.69453824      0.42785405      0.46619437 Fe
initial_moment 5.0
atom_frac       0.30542384      0.57212068      0.53372486 Fe
initial_moment 5.0
atom_frac       0.40608862      1.33512591      0.05765031 H
atom_frac      -0.32527644      0.18164374     -0.10152774 H
atom_frac       1.32522138      0.81841223      1.10151641 H
atom_frac       0.59381808     -0.33518986      0.94228228 H
atom_frac       0.39941686      1.40360136     -0.15559498 H
atom_frac      -0.19008651      0.30689355     -0.15968366 H
atom_frac       1.19002865      0.69311844      1.15967691 H
atom_frac       0.60047307     -0.40368556      1.15549864 H
atom_frac       0.39105503      0.22347130     -0.20278962 H
atom_frac       0.92641378      0.47700510      0.07185686 H
atom_frac       1.03554235      0.69766047      0.84860245 H
atom_frac       0.82381178     -0.15005853      1.27893212 H
atom_frac       0.60895790      0.77655431      1.20275536 H
atom_frac       0.07361031      0.52297449      0.92828971 H
atom_frac      -0.03561611      0.30230096      0.15131440 H
atom_frac       0.17615206      1.15003163     -0.27904682 H
atom_frac       0.39542736      0.14612202      0.02151081 H
atom_frac       0.76843915      0.34667409      0.10192911 H
atom_frac       1.17908853      0.82762772      0.78482835 H
atom_frac       0.82299167     -0.09893364      1.05550594 H
atom_frac       0.60455129      0.85385492      0.97843302 H
atom_frac       0.23151798      0.65338953      0.89802266 H
atom_frac      -0.17913171      0.17237704      0.21514489 H
atom_frac       0.17691675      1.09880648     -0.05564187 H
atom_frac       0.54017877      0.33299072     -0.00233310 H
atom_frac       0.77064417      0.43649891     -0.11768731 H
atom_frac       1.17847998      0.88086139      0.94534435 H
atom_frac       0.82831389     -0.24617723      1.18560468 H
atom_frac       0.45979463      0.66701718      1.00232440 H
atom_frac       0.22948063      0.56366445      1.11772677 H
atom_frac      -0.17860718      0.11910586      0.05456023 H
atom_frac       0.17158873      1.24605891     -0.18567022 H
atom_frac       0.36550840      1.30257614     -0.07327762 N
atom_frac      -0.21825069      0.26721494     -0.04816311 N
atom_frac       1.21820225      0.73281467      1.04814973 N
atom_frac       0.63441788     -0.30263888      1.07322029 N
atom_frac       0.62097588      0.26972747      0.32543386 O
atom_frac       0.84921863      0.58104333      0.38408301 O
atom_frac       0.54141103      0.44576173      0.27991680 O
initial_moment -1.0
atom_frac       0.83898137      0.39747521      0.65893602 O
initial_moment -1.0
atom_frac       0.56792710      0.23709400      0.58557631 O
atom_frac       0.73258519      0.54544459      0.61357004 O
atom_frac       0.37906737      0.73027498      0.67456311 O
atom_frac       0.15076294      0.41896947      0.61587718 O
atom_frac       0.45853216      0.55417513      0.72005418 O
atom_frac       0.16104245      0.60257833      0.34107826 O
atom_frac       0.43206175      0.76288031      0.41436208 O
atom_frac       0.26735323      0.45448333      0.38640569 O
