# 
# This is the geometry file that corresponds to the current relaxation step.
# If you do not want this file to be written, set the "write_restart_geometry" flag to .false.
#  aims_uuid : DFBD7B17-E738-49A3-A7E7-BD6B1BEDF256                                
# 
lattice_vector     11.37164067     -6.55781291     -0.00721094
lattice_vector      0.09500229     13.11857313      0.00679446
lattice_vector      0.00591031     -0.01146128      8.91621217
atom_frac       0.28549657      0.07584675      0.35723068 C
atom_frac       0.91107222      0.27311821      0.22594990 C
atom_frac       0.71318701      0.62712395      0.20858853 C
atom_frac       0.87287072      0.63545644      0.80222477 C
atom_frac       0.84876051      0.13933869      0.64683040 C
atom_frac       0.37656244      0.24747946      0.83659318 C
atom_frac       0.71451725      0.92421520      0.64293932 C
atom_frac       0.08887807      0.72694657      0.77379940 C
atom_frac       0.28680832      0.37279164      0.79146456 C
atom_frac       0.12709066      0.36455559      0.19770389 C
atom_frac       0.15132855      0.86071249      0.35296356 C
atom_frac       0.62345099      0.75244884      0.16353081 C
atom_frac       0.55530747      0.01621700      0.35957176 C
atom_frac      -0.01656857      0.54320465      0.36356723 C
atom_frac       0.45296281      0.43649623      0.36951873 C
atom_frac       0.01654354      0.45674947      0.63651905 C
atom_frac       0.44465106     -0.01624795      0.64052289 C
atom_frac       0.54705714      0.56352253      0.63048968 C
atom_frac       0.59461026      0.11123754      0.45738817 C
atom_frac       0.88735125      0.48107894      0.45791921 C
atom_frac       0.51692387      0.40405680      0.46435606 C
atom_frac       0.90449428      0.43463422      0.59922026 C
atom_frac       0.53535850      0.09425351      0.60178676 C
atom_frac       0.56676682      0.47051873      0.59763499 C
atom_frac       0.40534523      0.88873058      0.54270594 C
atom_frac       0.11262459      0.51887208      0.54216548 C
atom_frac       0.48309570      0.59596060      0.53565313 C
atom_frac       0.09547766      0.56531545      0.40086664 C
atom_frac       0.46459351      0.90571775      0.39830029 C
atom_frac       0.43325006      0.52949569      0.40237312 C
atom_frac       0.61685914      0.03460756      0.18283087 Cl
atom_frac      -0.03911785      0.58541512      0.18744614 Cl
atom_frac       0.40341179      0.36359222      0.19968409 Cl
atom_frac       0.03910807      0.41456196      0.81265060 Cl
atom_frac       0.38310576     -0.03464316      0.81726981 Cl
atom_frac       0.59656926      0.63639996      0.80034726 Cl
atom_frac       0.66449566      0.33194827      0.56815389 Fe
atom_frac       0.33547737      0.66802513      0.43191419 Fe
atom_frac       0.11692180     -0.01407984      0.44568565 H
atom_frac       0.00723595      0.18680852      0.21025982 H
atom_frac       0.60965921      0.65819887      0.35474748 H
atom_frac      -0.00733640      0.81320679      0.78939052 H
atom_frac       0.88303600      0.01398693      0.55429407 H
atom_frac       0.39054986      0.34189965      0.64546767 H
atom_frac       0.11886474     -0.01191678      0.26409768 H
atom_frac       0.00009643      0.24709463      0.05333940 H
atom_frac       0.74179049      0.77270297      0.32923480 H
atom_frac      -0.00007986      0.75309001      0.94639548 H
atom_frac       0.88121087      0.01201113      0.73588594 H
atom_frac       0.25841738      0.22734299      0.67069442 H
atom_frac       0.33095751      0.07015213      0.25847895 H
atom_frac       0.90962877      0.34549805      0.16884749 H
atom_frac       0.78483112      0.67899525      0.13196937 H
atom_frac       0.86947215      0.55743919      0.84912063 H
atom_frac       0.80688558      0.14913318      0.74666518 H
atom_frac       0.30759182      0.19223423      0.91494961 H
atom_frac       0.66913842      0.93003519      0.74170128 H
atom_frac       0.09038235      0.65462741      0.83098444 H
atom_frac       0.21504548      0.32082258      0.86787550 H
atom_frac       0.13055741      0.44262922      0.15089528 H
atom_frac       0.19328677      0.85104916      0.25312694 H
atom_frac       0.69232241      0.80758671      0.08502598 H
atom_frac       0.32858340      0.06772809      0.45684250 H
atom_frac       0.92476911      0.29188735      0.34509016 H
atom_frac       0.64054470      0.55723459      0.14787869 H
atom_frac       0.86072584      0.62486878      0.68164976 H
atom_frac       0.80534411      0.14941649      0.54883858 H
atom_frac       0.44801159      0.32068167      0.89444753 H
atom_frac       0.67137673      0.93225568      0.54333295 H
atom_frac       0.07512266      0.70807982      0.65468499 H
atom_frac       0.35934569      0.44262476      0.85239187 H
atom_frac       0.13916153      0.37504132      0.31829668 H
atom_frac       0.19469035      0.85055173      0.45095582 H
atom_frac       0.55191418      0.67918989      0.10586324 H
atom_frac       0.28626668      0.15898770      0.35682346 H
atom_frac       0.82925983      0.19246221      0.20741687 H
atom_frac       0.74211797      0.58951585      0.29629810 H
atom_frac       0.80460181      0.64941663      0.84969674 H
atom_frac       0.94124254      0.20462937      0.64668803 H
atom_frac       0.41127122      0.19781119      0.77961236 H
atom_frac       0.71370584      0.84105442      0.64346248 H
atom_frac       0.17068425      0.80763166      0.79222545 H
atom_frac       0.25800834      0.41048683      0.70370926 H
atom_frac       0.19536431      0.35059672      0.15024552 H
atom_frac       0.05885675      0.79539218      0.35297077 H
atom_frac       0.58883857      0.80219800      0.22054834 H
atom_frac       0.16260106     -0.02124032      0.35466699 N
atom_frac       0.01045814      0.26123949      0.16647990 N
atom_frac       0.67309476      0.70488183      0.27452823 N
atom_frac      -0.01050176      0.73883045      0.83327934 N
atom_frac       0.83743204      0.02126764      0.64531526 N
atom_frac       0.32703154      0.29512891      0.72555595 N
atom_frac       0.68084662      0.21377123      0.43118065 O
atom_frac       0.78374747      0.46127929      0.42979766 O
atom_frac       0.53551492      0.31647845      0.43889775 O
atom_frac       0.81414035      0.37658641      0.68206908 O
atom_frac       0.57062818      0.18499743      0.68629010 O
atom_frac       0.62814517      0.43880224      0.68213280 O
atom_frac       0.31911117      0.78619566      0.56891009 O
atom_frac       0.21623221      0.53867933      0.57027978 O
atom_frac       0.46447701      0.68351812      0.56113609 O
atom_frac       0.18582886      0.62336611      0.31801512 O
atom_frac       0.42931502      0.81497978      0.31378509 O
atom_frac       0.37184515      0.56119203      0.31790142 O
# 
# What follows is the current estimated Hessian matrix constructed by the BFGS algorithm.
# This is NOT the true Hessian matrix of the system.
# If you do not want this information here, switch it off using the "hessian_to_restart_geometry" keyword.
# 
trust_radius             0.2759385414
hessian_file
