lattice_vector     11.37164067     -6.55781291     -0.00721094
lattice_vector      0.09500229     13.11857313      0.00679446
lattice_vector      0.00591031     -0.01146128      8.91621217
atom_frac       0.29870625      0.08027483      0.35843591 C
atom_frac       0.91320421      0.25850161      0.25938398 C
atom_frac       0.71220848      0.61807778      0.19950410 C
atom_frac       0.87157384      0.64772430      0.77923379 C
atom_frac       0.82542490      0.13318636      0.68951368 C
atom_frac       0.36662043      0.24504958      0.82082574 C
atom_frac       0.70129195      0.91971093      0.64151682 C
atom_frac       0.08677093      0.74149832      0.74071296 C
atom_frac       0.28767792      0.38177229      0.80053544 C
atom_frac       0.12838026      0.35229609      0.22061349 C
atom_frac       0.17456781      0.86679519      0.31047927 C
atom_frac       0.63326084      0.75478302      0.17925322 C
atom_frac       0.55535758      0.01685109      0.35935406 C
atom_frac      -0.01729157      0.54102553      0.36191797 C
atom_frac       0.45436854      0.43703536      0.36874327 C
atom_frac       0.01730697      0.45894083      0.63808391 C
atom_frac       0.44462596     -0.01681719      0.64068617 C
atom_frac       0.54572403      0.56308454      0.63124352 C
atom_frac       0.59481048      0.11132029      0.45820827 C
atom_frac       0.88737574      0.48064744      0.45784562 C
atom_frac       0.51709201      0.40407221      0.46512865 C
atom_frac       0.90507048      0.43607064      0.60024414 C
atom_frac       0.53549483      0.09388197      0.60261904 C
atom_frac       0.56586132      0.47012563      0.59896057 C
atom_frac       0.40518100      0.88871404      0.54182937 C
atom_frac       0.11264898      0.51934241      0.54216522 C
atom_frac       0.48300152      0.59604910      0.53485694 C
atom_frac       0.09495301      0.56392451      0.39976974 C
atom_frac       0.46448099      0.90615390      0.39742252 C
atom_frac       0.43423447      0.52999490      0.40102118 C
atom_frac       0.61760599      0.03611244      0.18301874 Cl
atom_frac      -0.04001103      0.58132819      0.18510312 Cl
atom_frac       0.40714751      0.36489251      0.19785646 Cl
atom_frac       0.04001414      0.41861279      0.81488368 Cl
atom_frac       0.38237884     -0.03608789      0.81702929 Cl
atom_frac       0.59278588      0.63511530      0.80222040 Cl
atom_frac       0.66467991      0.33232068      0.57014384 Fe
initial_moment 5.0
atom_frac       0.33533301      0.66770963      0.42989002 Fe
initial_moment 5.0
atom_frac       0.12283929     -0.02314523      0.41290402 H
atom_frac       0.01517997      0.17860870      0.27720441 H
atom_frac       0.61940048      0.65203645      0.36064931 H
atom_frac      -0.01518335      0.82139088      0.72261805 H
atom_frac       0.87715249      0.02314178      0.58704482 H
atom_frac       0.38121261      0.34842893      0.63983624 H
atom_frac       0.14515931     -0.00066712      0.23446024 H
atom_frac      -0.00089280      0.20992883      0.10547548 H
atom_frac       0.75415113      0.76189609      0.33269321 H
atom_frac       0.00077414      0.79012244      0.89441336 H
atom_frac       0.85483761      0.00064009      0.76548770 H
atom_frac       0.24641051      0.23844324      0.66677350 H
atom_frac       0.35613991      0.08887977      0.26564854 H
atom_frac       0.90871220      0.32227347      0.18601392 H
atom_frac       0.78292724      0.66976618      0.12158132 H
atom_frac       0.87470126      0.57998205      0.84579506 H
atom_frac       0.76787358      0.12772540      0.78058976 H
atom_frac       0.29916814      0.19033965      0.90092431 H
atom_frac       0.64386234      0.91108229      0.73431937 H
atom_frac       0.09120385      0.67773312      0.81415553 H
atom_frac       0.21659338      0.32975486      0.87789604 H
atom_frac       0.12520405      0.42005139      0.15412258 H
atom_frac       0.23212407      0.87224142      0.21941788 H
atom_frac       0.70041336      0.80898029      0.09829559 H
atom_frac       0.33158089      0.06169232      0.46054052 H
atom_frac       0.92833371      0.29105594      0.37381206 H
atom_frac       0.63560672      0.55401872      0.13833862 H
atom_frac       0.85401847      0.61902575      0.66323943 H
atom_frac       0.79568312      0.15466174      0.58676570 H
atom_frac       0.44312220      0.31339801      0.87783691 H
atom_frac       0.66840805      0.93831119      0.53943448 H
atom_frac       0.07172066      0.70892868      0.62629571 H
atom_frac       0.36395233      0.44564203      0.86225843 H
atom_frac       0.14601477      0.38097509      0.33662238 H
atom_frac       0.20429857      0.84532953      0.41324345 H
atom_frac       0.55634332      0.68640062      0.12332252 H
atom_frac       0.29463438      0.16060555      0.36952222 H
atom_frac       0.83223409      0.17541678      0.25218998 H
atom_frac       0.73969757      0.57385002      0.27978036 H
atom_frac       0.80320715      0.66460315      0.81932309 H
atom_frac       0.91493256      0.19987585      0.71429182 H
atom_frac       0.39404746      0.19307914      0.75482970 H
atom_frac       0.70537352      0.83938868      0.63038593 H
atom_frac       0.16774311      0.82457820      0.74794322 H
atom_frac       0.26049681      0.42621585      0.72027992 H
atom_frac       0.19672039      0.33541392      0.18039697 H
atom_frac       0.08505982      0.80010735      0.28569798 H
atom_frac       0.60657269      0.80731153      0.24498550 H
atom_frac       0.17946096     -0.01842222      0.32823259 N
atom_frac       0.01320025      0.24295218      0.21220025 N
atom_frac       0.68130870      0.69839030      0.27885945 N
atom_frac      -0.01324946      0.75706610      0.78771125 N
atom_frac       0.82053675      0.01840900      0.67172622 N
atom_frac       0.31895455      0.30173893      0.72117534 N
atom_frac       0.68133535      0.21390503      0.43321721 O
atom_frac       0.78351140      0.46099459      0.43067400 O
atom_frac       0.53583408      0.31653450      0.44030949 O
initial_moment 1.0
atom_frac       0.81480152      0.37854535      0.68351622 O
initial_moment 1.0
atom_frac       0.57098277      0.18440637      0.68754457 O
atom_frac       0.62682688      0.43840895      0.68411370 O
atom_frac       0.31866553      0.78612520      0.56683879 O
initial_moment 0.0
atom_frac       0.21651469      0.53900505      0.56933844 O
atom_frac       0.46419796      0.68354005      0.55971207 O
atom_frac       0.18522616      0.62147629      0.31651083 O
atom_frac       0.42897203      0.81563037      0.31249751 O
atom_frac       0.37323419      0.56168206      0.31591102 O
