lattice_vector     11.37164067     -6.55781291     -0.00721094
lattice_vector      0.09500229     13.11857313      0.00679446
lattice_vector      0.00591031     -0.01146128      8.91621217
atom_frac       0.34311754      0.06859084      0.25114428 C
atom_frac       0.91227743      0.21016091      0.38764416 C
atom_frac       0.71862393      0.62089844      0.20374295 C
atom_frac       0.88422657      0.70215002      0.70766756 C
atom_frac       0.78723093      0.14239507      0.80600798 C
atom_frac       0.37663563      0.25771415      0.82857065 C
atom_frac       0.65693195      0.93138506      0.74881582 C
atom_frac       0.08775912      0.78986962      0.61237249 C
atom_frac       0.28132820      0.37913571      0.79626658 C
atom_frac       0.11577868      0.29789366      0.29222115 C
atom_frac       0.21275834      0.85758472      0.19400426 C
atom_frac       0.62343777      0.74240939      0.17139297 C
atom_frac       0.56667144      0.01557134      0.36964101 C
atom_frac      -0.01894011      0.53270831      0.35583400 C
atom_frac       0.45512582      0.43823811      0.36819506 C
atom_frac       0.01893998      0.46727313      0.64420393 C
atom_frac       0.43333039     -0.01560009      0.63041955 C
atom_frac       0.54490101      0.56177467      0.63179935 C
atom_frac       0.59897664      0.11057386      0.46601992 C
atom_frac       0.88727725      0.47760747      0.45510420 C
atom_frac       0.51861864      0.40481577      0.46257087 C
atom_frac       0.90607917      0.44012739      0.60241613 C
atom_frac       0.52931954      0.09426214      0.60134126 C
atom_frac       0.56597600      0.46982839      0.59752099 C
atom_frac       0.40101904      0.88939782      0.53403814 C
atom_frac       0.11272078      0.52236887      0.54493211 C
atom_frac       0.48140687      0.59519782      0.53742188 C
atom_frac       0.09391903      0.55985031      0.39762067 C
atom_frac       0.47067479      0.90571556      0.39871345 C
atom_frac       0.43403600      0.53017419      0.40248763 C
atom_frac       0.64376767      0.03611277      0.20361367 Cl
atom_frac      -0.04258130      0.56724838      0.17646767 Cl
atom_frac       0.40775119      0.36931087      0.19535213 Cl
atom_frac       0.04257508      0.43273443      0.82357388 Cl
atom_frac       0.35623344     -0.03613756      0.79644616 Cl
atom_frac       0.59226384      0.63070015      0.80464703 Cl
atom_frac       0.66617533      0.33414112      0.57038838 Fe
initial_moment 5.0
atom_frac       0.33381330      0.66583746      0.42964729 Fe
initial_moment 5.0
atom_frac       0.16279479     -0.02618384      0.27915992 H
atom_frac       0.02441476      0.14224800      0.41348430 H
atom_frac       0.61559755      0.64728869      0.35742543 H
atom_frac      -0.02436066      0.85779173      0.58641570 H
atom_frac       0.83726443      0.02620716      0.72088183 H
atom_frac       0.38451622      0.35279103      0.64256074 H
atom_frac       0.20245761     -0.00236119      0.10459558 H
atom_frac      -0.02231841      0.13268573      0.24308678 H
atom_frac       0.74593133      0.76383393      0.33112109 H
atom_frac       0.02230887      0.86735267      0.75684874 H
atom_frac       0.79755147      0.00235735      0.89543118 H
atom_frac       0.25420754      0.23619658      0.66864971 H
atom_frac       0.40634794      0.07096384      0.17047478 H
atom_frac       0.88600037      0.24902870      0.29905492 H
atom_frac       0.78769224      0.67444760      0.12510315 H
atom_frac       0.90419385      0.65501148      0.79228885 H
atom_frac       0.72433272      0.13961294      0.88744134 H
atom_frac       0.31060408      0.20296481      0.91058174 H
atom_frac       0.59366937      0.92899060      0.82944671 H
atom_frac       0.11400008      0.75099743      0.70099725 H
atom_frac       0.21184816      0.32537791      0.87454871 H
atom_frac       0.09577385      0.34502906      0.20763339 H
atom_frac       0.27560587      0.86032980      0.11252124 H
atom_frac       0.68933459      0.79742492      0.08990053 H
atom_frac       0.36206839      0.04682092      0.36127865 H
atom_frac       0.94512903      0.26976710      0.48255397 H
atom_frac       0.64525170      0.55099024      0.14414925 H
atom_frac       0.84940753      0.64674505      0.60917080 H
atom_frac       0.76820484      0.16691712      0.69772593 H
atom_frac       0.45016261      0.33127825      0.88288862 H
atom_frac       0.63800413      0.95314496      0.63866107 H
atom_frac       0.05493926      0.73026432      0.51746024 H
atom_frac       0.35452326      0.44894355      0.85642767 H
atom_frac       0.15063542      0.35329695      0.39071822 H
atom_frac       0.23182975      0.83307640      0.30226175 H
atom_frac       0.55005753      0.66864606      0.11633748 H
atom_frac       0.34677386      0.15301679      0.25508652 H
atom_frac       0.83767994      0.12701215      0.41985993 H
atom_frac       0.75051854      0.58285220      0.28739106 H
atom_frac       0.81998688      0.72441309      0.75005588 H
atom_frac       0.87583606      0.20549091      0.83975464 H
atom_frac       0.40914392      0.20779054      0.76758272 H
atom_frac       0.65329987      0.84696943      0.74490254 H
atom_frac       0.16237128      0.87301498      0.58018093 H
atom_frac       0.24960971      0.41713645      0.71283737 H
atom_frac       0.18000763      0.27563320      0.24977095 H
atom_frac       0.12413578      0.79449984      0.16033085 H
atom_frac       0.59039992      0.79182931      0.23263671 H
atom_frac       0.22440149     -0.02408908      0.20516763 N
atom_frac       0.00697851      0.18913887      0.33303237 N
atom_frac       0.67751724      0.69570044      0.27666164 N
atom_frac      -0.00695576      0.81090095      0.66690133 N
atom_frac       0.77562555      0.02408406      0.79484298 N
atom_frac       0.32260264      0.30443644      0.72324464 N
atom_frac       0.68660774      0.21297800      0.44543077 O
atom_frac       0.78338493      0.45760597      0.42828429 O
atom_frac       0.53876110      0.31841293      0.43598381 O
initial_moment 1.0
atom_frac       0.81518987      0.38289668      0.68446447 O
initial_moment -1.0
atom_frac       0.56203231      0.18418248      0.68632628 O
atom_frac       0.62678674      0.43839429      0.68323763 O
atom_frac       0.31338216      0.78699587      0.55462322 O
initial_moment 0.0
atom_frac       0.21661374      0.54236631      0.57174866 O
atom_frac       0.46123375      0.68158311      0.56403789 O
atom_frac       0.18480715      0.61707457      0.31556790 O
atom_frac       0.43794410      0.81579963      0.31371189 O
atom_frac       0.37318410      0.56158131      0.31678820 O
# 
# What follows is the current estimated Hessian matrix constructed by the BFGS algorithm.
# This is NOT the true Hessian matrix of the system.
# If you do not want this information here, switch it off using the "hessian_to_restart_geometry" keyword.
# 
trust_radius             0.5083590911
hessian_file
