# 
# This is the geometry file that corresponds to the current relaxation step.
# If you do not want this file to be written, set the "write_restart_geometry" flag to .false.
#  aims_uuid : CD92B533-45E6-4D92-A854-7B57235DEF99                                
# 
lattice_vector     11.37164067     -6.55781291     -0.00721094
lattice_vector      0.09500229     13.11857313      0.00679446
lattice_vector      0.00591031     -0.01146128      8.91621217
atom_frac       0.34066135      0.06900484      0.24471387 C
atom_frac       0.91180339      0.20765084      0.37339418 C
atom_frac       0.72208024      0.62554015      0.20296704 C
atom_frac       0.87789990      0.69749581      0.69656595 C
atom_frac       0.78588575      0.14571319      0.79404365 C
atom_frac       0.37687375      0.25667478      0.83244778 C
atom_frac       0.65934522      0.93099927      0.75530659 C
atom_frac       0.08819821      0.79235508      0.62661981 C
atom_frac       0.27783768      0.37436390      0.79693912 C
atom_frac       0.12209567      0.30252457      0.30341690 C
atom_frac       0.21412402      0.85429565      0.20594647 C
atom_frac       0.62315671      0.74334703      0.16762922 C
atom_frac       0.56404736      0.01634079      0.36627106 C
atom_frac      -0.01860651      0.53450353      0.35730805 C
atom_frac       0.45661569      0.43920816      0.36724056 C
atom_frac       0.01861250      0.46551437      0.64269286 C
atom_frac       0.43597033     -0.01632644      0.63372789 C
atom_frac       0.54336612      0.56078538      0.63277314 C
atom_frac       0.59706359      0.11113846      0.46343017 C
atom_frac       0.88751749      0.47927831      0.45650939 C
atom_frac       0.51860949      0.40479996      0.46269565 C
atom_frac       0.90600477      0.44052473      0.60276626 C
atom_frac       0.52959638      0.09412135      0.60154404 C
atom_frac       0.56489271      0.46912277      0.59826778 C
atom_frac       0.40295220      0.88887696      0.53656723 C
atom_frac       0.11248868      0.52074088      0.54349135 C
atom_frac       0.48137926      0.59519815      0.53731305 C
atom_frac       0.09400109      0.55949396      0.39723420 C
atom_frac       0.47042041      0.90589315      0.39845491 C
atom_frac       0.43509354      0.53087412      0.40174130 C
atom_frac       0.63668538      0.03799184      0.19630870 Cl
atom_frac      -0.04289201      0.56899431      0.17824224 Cl
atom_frac       0.41110366      0.37157407      0.19355909 Cl
atom_frac       0.04290048      0.43102177      0.82175582 Cl
atom_frac       0.36333231     -0.03797891      0.80369191 Cl
atom_frac       0.58888460      0.62842164      0.80645030 Cl
atom_frac       0.66585293      0.33423690      0.57108664 Fe
atom_frac       0.33415290      0.66577745      0.42891082 Fe
atom_frac       0.16004663     -0.02700890      0.26781681 H
atom_frac       0.02544388      0.14380321      0.41617721 H
atom_frac       0.61496673      0.64844044      0.35416104 H
atom_frac      -0.02542443      0.85622198      0.58382404 H
atom_frac       0.83995784      0.02701000      0.73219590 H
atom_frac       0.38503187      0.35150753      0.64584221 H
atom_frac       0.20337203     -0.01313571      0.09468175 H
atom_frac      -0.00886882      0.13688462      0.24063999 H
atom_frac       0.74446602      0.76673123      0.33017077 H
atom_frac       0.00887120      0.86312593      0.75936624 H
atom_frac       0.79663715      0.01315395      0.90532860 H
atom_frac       0.25556718      0.23318193      0.66983227 H
atom_frac       0.40604513      0.06923837      0.16967292 H
atom_frac       0.89170007      0.24849620      0.28085244 H
atom_frac       0.79473346      0.68171296      0.12987251 H
atom_frac       0.89301177      0.64965240      0.78512559 H
atom_frac       0.72030026      0.14650301      0.86762580 H
atom_frac       0.31091057      0.20224308      0.91450791 H
atom_frac       0.59396643      0.93077538      0.83034345 H
atom_frac       0.10828751      0.75149921      0.71916224 H
atom_frac       0.20510174      0.31815254      0.86989301 H
atom_frac       0.10696840      0.35035742      0.21485803 H
atom_frac       0.27971575      0.85351544      0.13236586 H
atom_frac       0.68916594      0.79786201      0.08566103 H
atom_frac       0.35881509      0.05404141      0.35892638 H
atom_frac       0.93552485      0.26429311      0.47113412 H
atom_frac       0.65164204      0.55724555      0.13753872 H
atom_frac       0.85179933      0.64429295      0.59548206 H
atom_frac       0.76946259      0.16297129      0.68019203 H
atom_frac       0.44977015      0.33103766      0.88662351 H
atom_frac       0.64118764      0.94594886      0.64109299 H
atom_frac       0.06448122      0.73571906      0.52887399 H
atom_frac       0.34820225      0.44262470      0.86248747 H
atom_frac       0.14820046      0.35573273      0.40449512 H
atom_frac       0.23054025      0.83702583      0.31979648 H
atom_frac       0.55029900      0.66904036      0.11333830 H
atom_frac       0.34160224      0.15212548      0.23835596 H
atom_frac       0.83636521      0.12257909      0.39665450 H
atom_frac       0.75039627      0.58529703      0.28795095 H
atom_frac       0.80967727      0.71691133      0.72996150 H
atom_frac       0.87318462      0.21191582      0.82847715 H
atom_frac       0.41037640      0.20701879      0.77274636 H
atom_frac       0.65840351      0.84787908      0.76168159 H
atom_frac       0.16364376      0.87742471      0.60337310 H
atom_frac       0.24962612      0.41465841      0.71190466 H
atom_frac       0.19032156      0.28311719      0.27001302 H
atom_frac       0.12682773      0.78809530      0.17149979 H
atom_frac       0.58963032      0.79295287      0.22739503 H
atom_frac       0.22364163     -0.02801643      0.20039942 N
atom_frac       0.01225706      0.19124252      0.33253698 N
atom_frac       0.67748911      0.69797826      0.27445483 N
atom_frac      -0.01225183      0.80877261      0.66746469 N
atom_frac       0.77636555      0.02802469      0.79960893 N
atom_frac       0.32249948      0.30195630      0.72554052 N
atom_frac       0.68347584      0.21368567      0.44255002 O
atom_frac       0.78372544      0.46034738      0.42917648 O
atom_frac       0.53857656      0.31823794      0.43635831 O
atom_frac       0.81553382      0.38448886      0.68653923 O
atom_frac       0.56300037      0.18456811      0.68522325 O
atom_frac       0.62567395      0.43759118      0.68406277 O
atom_frac       0.31653690      0.78633113      0.55744639 O
atom_frac       0.21628056      0.53967157      0.57082292 O
atom_frac       0.46142592      0.68176959      0.56364077 O
atom_frac       0.18447173      0.61552819      0.31346035 O
atom_frac       0.43701495      0.81544526      0.31477658 O
atom_frac       0.37432122      0.56241137      0.31594035 O
# 
# What follows is the current estimated Hessian matrix constructed by the BFGS algorithm.
# This is NOT the true Hessian matrix of the system.
# If you do not want this information here, switch it off using the "hessian_to_restart_geometry" keyword.
# 
trust_radius             0.2000000030
hessian_file
