# 
# This is the geometry file that corresponds to the current relaxation step.
# If you do not want this file to be written, set the "write_restart_geometry" flag to .false.
#  aims_uuid : 2A9E5E33-72AC-4661-A26B-AFAFA8E318AA                                
# 
lattice_vector     11.44057932     -6.28898809     -0.31059128
lattice_vector      0.32476398     13.52027157     -0.31243895
lattice_vector     -0.31361580     -0.56856663      7.98502294
atom_frac       0.17657529     -0.08212196      0.37296452 C
atom_frac       0.64071737      0.36981408      0.03192606 C
atom_frac       0.74912808      0.65585445      0.32717043 C
atom_frac       1.23901764      0.72728528      0.98865206 C
atom_frac       0.92252306      0.17601185      0.38318310 C
atom_frac       0.35854195      0.23808453      0.72253136 C
atom_frac       0.82342181      1.08207665      0.62698668 C
atom_frac       0.35926895      0.63012973      0.96803665 C
atom_frac       0.25086459      0.34409216      0.67279363 C
atom_frac      -0.23903168      0.27265821      0.01130717 C
atom_frac       0.07746678      0.82394008      0.61676187 C
atom_frac       0.64144695      0.76185734      0.27742428 C
atom_frac       0.53486866     -0.01018940      0.34058340 C
atom_frac      -0.01715710      0.53501496      0.34771062 C
atom_frac       0.43200216      0.42875057      0.35900700 C
atom_frac       0.01714649      0.46492896      0.65225023 C
atom_frac       0.46512022      0.01013235      0.65937698 C
atom_frac       0.56798661      0.57119397      0.64095444 C
atom_frac       0.57140172      0.09620066      0.42690508 C
atom_frac       0.88774168      0.46233239      0.42700857 C
atom_frac       0.51440409      0.40698109      0.43887467 C
atom_frac       0.90540062      0.42777745      0.58065214 C
atom_frac       0.53779055      0.10708349      0.59010109 C
atom_frac       0.58193017      0.47792211      0.58319077 C
atom_frac       0.42858700      0.90374243      0.57305508 C
atom_frac       0.11224762      0.53761164      0.57295234 C
atom_frac       0.48558477      0.59296344      0.56108658 C
atom_frac       0.09458866      0.57216672      0.41930902 C
atom_frac       0.46219834      0.89285958      0.40985935 C
atom_frac       0.41805865      0.52202233      0.41677089 C
atom_frac       0.57940905     -0.02036380      0.14104391 Cl
atom_frac      -0.03599592      0.57728176      0.15747693 Cl
atom_frac       0.33719678      0.33103809      0.19798731 Cl
atom_frac       0.03598602      0.42266200      0.84248357 Cl
atom_frac       0.42057907      0.02030570      0.85891621 Cl
atom_frac       0.66279093      0.66890699      0.80197440 Cl
atom_frac       0.66748537      0.32553963      0.51953259 V
atom_frac       0.33250337      0.67440419      0.48042834 V
atom_frac       0.11441675     -0.01542147      0.56659475 H
atom_frac      -0.37496440      0.23621770      0.15831871 H
atom_frac       0.81708858      0.81702064      0.26186917 H
atom_frac       0.37495217      0.76372643      0.84164407 H
atom_frac       0.88557092      0.01537263      0.43334802 H
atom_frac       0.18290033      0.18292283      0.73808265 H
atom_frac       0.01278639     -0.11223501      0.43807892 H
atom_frac      -0.41265544      0.20471075     -0.04857510 H
atom_frac       0.73306639      0.71724367      0.10790136 H
atom_frac       0.41264089      0.79523257      1.04853881 H
atom_frac       0.98720642      0.11218461      0.56185878 H
atom_frac       0.26692159      0.28269496      0.89205683 H
atom_frac       0.15181594     -0.16399719      0.30422984 H
atom_frac       0.65822620      0.39377860     -0.09412961 H
atom_frac       0.66814203      0.57870282      0.30718947 H
atom_frac       1.21529893      0.69848401      1.11085082 H
atom_frac       0.95935482      0.25940123      0.45253705 H
atom_frac       0.43892945      0.31444313      0.75541663 H
atom_frac       0.84818971      1.16395156      0.69572890 H
atom_frac       0.34175682      0.60616377      1.09409100 H
atom_frac       0.33185070      0.42124339      0.69278201 H
atom_frac      -0.21531236      0.30146278     -0.11088956 H
atom_frac       0.04063049      0.74054990      0.54740977 H
atom_frac       0.56105991      0.68549785      0.24454172 H
atom_frac       0.26222561     -0.04997441      0.43639969 H
atom_frac       0.70475552      0.43228289      0.12553249 H
atom_frac       0.76585408      0.68717044      0.46035247 H
atom_frac       1.17756797      0.66782892      0.88950669 H
atom_frac       0.83867076      0.15570959      0.32283191 H
atom_frac       0.35091641      0.21293406      0.58794587 H
atom_frac       0.73777079      1.04993751      0.56355785 H
atom_frac       0.29523328      0.56766180      0.87442676 H
atom_frac       0.23414179      0.31278102      0.53960991 H
atom_frac      -0.17758190      0.33211168      0.11045490 H
atom_frac       0.16131898      0.84423921      0.67710998 H
atom_frac       0.64907306      0.78701025      0.41200907 H
atom_frac       0.17516840     -0.02411289      0.28836184 H
atom_frac       0.55496316      0.35656062      0.06205503 H
atom_frac       0.81955325      0.64137164      0.28252016 H
atom_frac       1.24419444      0.80955662      0.98426845 H
atom_frac       0.98038398      0.17170421      0.29015450 H
atom_frac       0.35636180      0.17172889      0.79108165 H
atom_frac       0.82482523      1.02406195      0.71158135 H
atom_frac       0.44502433      0.64338413      0.93791309 H
atom_frac       0.18043838      0.35857347      0.71744309 H
atom_frac      -0.24420969      0.19038589      0.01568410 H
atom_frac       0.01960913      0.82825190      0.70979305 H
atom_frac       0.64362575      0.82821115      0.20887074 H
atom_frac       0.09253496     -0.09358941      0.49914520 N
atom_frac      -0.35392732      0.26372729      0.04148822 N
atom_frac       0.73975490      0.74092662      0.23440779 N
atom_frac       0.35391373      0.73621651      0.95847398 N
atom_frac       0.90745668      0.09354103      0.50079832 N
atom_frac       0.26023458      0.25901577      0.76554945 N
atom_frac       0.63935245      0.19163820      0.36824787 O
atom_frac       0.77830718      0.41809775      0.37009105 O
atom_frac       0.53793203      0.32415942      0.39265434 O
atom_frac       0.80935184      0.35808438      0.64293905 O
atom_frac       0.58043145      0.21082002      0.66590521 O
atom_frac       0.65470402      0.44742136      0.64925202 O
atom_frac       0.36063580      0.80830506      0.63171214 O
atom_frac       0.22168207      0.58184624      0.62986980 O
atom_frac       0.46205673      0.67578501      0.60730667 O
atom_frac       0.19063737      0.64185997      0.35702222 O
atom_frac       0.41955721      0.78912307      0.33405515 O
atom_frac       0.34528457      0.55252282      0.35070981 O
# 
# What follows is the current estimated Hessian matrix constructed by the BFGS algorithm.
# This is NOT the true Hessian matrix of the system.
# If you do not want this information here, switch it off using the "hessian_to_restart_geometry" keyword.
# 
trust_radius             0.4000000060
hessian_file
