#=======================================================
# FHI-aims file: geometry.in
# Created using the Atomic Simulation Environment (ASE)
# Tue Mar  8 17:08:55 2022
#=======================================================
lattice_vector 15.1871139999999993 0.0000000000000000 0.0000000000000000 
lattice_vector -9.1906664240281728 8.9252340511183341 0.0000000000000000 
lattice_vector -4.8349390131532664 0.0784164065018325 7.3467734820466504 
atom_frac 0.4267260000000000 0.2475570000000000 0.9356970000000000 C
atom_frac 0.8132440000000000 0.3900060000000000 0.0052870000000000 C
atom_frac 0.1485279999999999 0.7887120000000000 0.8966549999999999 C
atom_frac 0.1867759999999999 0.6100570000000000 0.9947460000000000 C
atom_frac 0.8513960000000000 0.2112750000000000 0.1032900000000000 C
atom_frac 0.2123860000000000 0.1918920000000000 0.8474109999999999 C
atom_frac 0.5353630000000000 0.0192860000000000 0.3673450000000000 C
atom_frac 0.0182490000000002 0.6137460000000000 0.3637590000000000 C
atom_frac 0.3966060000000000 0.4431450000000000 0.3268090000000000 C
atom_frac 0.9817599999999999 0.3862950000000000 0.6362390000000000 C
atom_frac 0.4646570000000000 0.9807020000000000 0.6326220000000000 C
atom_frac 0.6033220000000000 0.5567610000000000 0.6731720000000000 C
atom_frac 0.5644180000000000 0.1401040000000000 0.4039360000000000 C
atom_frac 0.9257559999999999 0.5495040000000000 0.4366100000000000 C
atom_frac 0.5159830000000001 0.4679750000000000 0.3837200000000001 C
atom_frac 0.9137410000000000 0.4382910000000000 0.5841310000000000 C
atom_frac 0.5302490000000000 0.1203830000000000 0.5456290000000001 C
atom_frac 0.6217320000000000 0.5249040000000000 0.5621580000000000 C
atom_frac 0.4356110000000000 0.8598870000000000 0.5960410000000000 C
atom_frac 0.0742470000000000 0.4505290000000000 0.5633820000000002 C
atom_frac 0.4839470000000000 0.5319330000000000 0.6162640000000000 C
atom_frac 0.0862740000000000 0.5617580000000000 0.4158780000000000 C
atom_frac 0.4697640000000000 0.8796010000000000 0.4543310000000000 C
atom_frac 0.3781970000000001 0.4749980000000000 0.4378250000000000 C
atom_frac 0.5681780000000000 0.0343840000000000 0.1962060000000000 Cl
atom_frac 0.0433140000000000 0.7540280000000000 0.2007640000000000 Cl
atom_frac 0.2664880000000000 0.3737960000000000 0.1119530000000000 Cl
atom_frac 0.9566780000000000 0.2460000000000000 0.7992120000000000 Cl
atom_frac 0.4318200000000000 0.9656000000000000 0.8037370000000000 Cl
atom_frac 0.7334750000000000 0.6261790000000000 0.8879920000000000 Cl
atom_frac 0.6945380000000000 0.4278540000000000 0.4661940000000000 Fe
initial_moment 5.0
atom_frac 0.3054240000000000 0.5721210000000000 0.5337250000000000 Fe
initial_moment 5.0
atom_frac 0.4060889999999999 0.3351260000000000 0.0576500000000000 H
atom_frac 0.6747240000000000 0.1816440000000000 0.8984720000000000 H
atom_frac 0.3252210000000002 0.8184120000000000 0.1015159999999999 H
atom_frac 0.3994170000000000 0.4036010000000001 0.8444050000000000 H
atom_frac 0.8099130000000000 0.3068940000000000 0.8403160000000001 H
atom_frac 0.1900290000000000 0.6931180000000000 0.1596770000000001 H
atom_frac 0.3910550000000000 0.2234710000000000 0.7972100000000000 H
atom_frac 0.9264140000000001 0.4770050000000000 0.0718570000000000 H
atom_frac 0.0355420000000000 0.6976599999999999 0.8486020000000000 H
atom_frac 0.0736100000000000 0.5229740000000000 0.9282899999999999 H
atom_frac 0.9643840000000000 0.3023010000000000 0.1513140000000000 H
atom_frac 0.1761520000000001 0.1500319999999999 0.7209530000000000 H
atom_frac 0.3954270000000000 0.1461220000000000 0.0215110000000000 H
atom_frac 0.7684390000000001 0.3466740000000000 0.1019290000000000 H
atom_frac 0.1790879999999999 0.8276280000000000 0.7848280000000000 H
atom_frac 0.2315180000000000 0.6533900000000000 0.8980230000000000 H
atom_frac 0.8208679999999999 0.1723770000000000 0.2151450000000000 H
atom_frac 0.1769170000000000 0.0988070000000001 0.9443580000000000 H
atom_frac 0.5401790000000000 0.3329910000000000 0.9976670000000000 H
atom_frac 0.7706440000000001 0.4364990000000000 0.8823130000000000 H
atom_frac 0.1784800000000000 0.8808610000000000 0.9453440000000000 H
atom_frac 0.2294810000000000 0.5636640000000001 0.1177269999999999 H
atom_frac 0.8213930000000000 0.1191060000000000 0.0545600000000000 H
atom_frac 0.1715890000000000 0.2460590000000000 0.8143300000000000 H
atom_frac 0.3655080000000001 0.3025760000000000 0.9267220000000000 N
atom_frac 0.7817489999999999 0.2672150000000000 0.9518370000000000 N
atom_frac 0.2182020000000000 0.7328150000000000 0.0481499999999999 N
atom_frac 0.6209760000000000 0.2697270000000000 0.3254340000000000 O
atom_frac 0.8492189999999999 0.5810430000000000 0.3840830000000000 O
initial_moment -.0
atom_frac 0.5414110000000000 0.4457620000000000 0.2799170000000000 O
atom_frac 0.8389810000000000 0.3974750000000000 0.6589360000000000 O
atom_frac 0.5679270000000000 0.2370940000000000 0.5855760000000000 O
initial_moment -.0
atom_frac 0.7325850000000000 0.5454450000000000 0.6135699999999999 O
atom_frac 0.3790670000000000 0.7302750000000000 0.6745630000000000 O
atom_frac 0.1507630000000000 0.4189690000000000 0.6158770000000000 O
atom_frac 0.4585320000000000 0.5541750000000000 0.7200540000000000 O
atom_frac 0.1610420000000000 0.6025779999999999 0.3410780000000000 O
atom_frac 0.4320620000000000 0.7628800000000000 0.4143620000000000 O
atom_frac 0.2673530000000000 0.4544830000000000 0.3864060000000000 O
