# 
# This is the geometry file that corresponds to the current relaxation step.
# If you do not want this file to be written, set the "write_restart_geometry" flag to .false.
#  aims_uuid : 1BF787AD-82AB-4806-AD9F-E121236BD793                                
# 
lattice_vector     13.79630723      2.43438388      0.78125808
lattice_vector     -5.37467488      9.49800512      0.34245434
lattice_vector     -4.01640751      1.14042558      7.60174892
atom_frac       0.53317011      0.32267437      0.97417413 C
atom_frac       0.78344193      0.28515027      0.02862917 C
atom_frac       0.17380633      0.89113279      0.96611770 C
atom_frac       0.19584475      0.67782979      0.96078272 C
atom_frac       0.77665325      0.06101241      0.01179129 C
atom_frac       0.34048252      0.28596713      0.90630006 C
atom_frac       0.50080509     -0.03058301      0.36194671 C
atom_frac      -0.04733391      0.55361208      0.31037134 C
atom_frac       0.39808902      0.43861168      0.35399244 C
atom_frac       1.00649755      0.41293245      0.67304445 C
atom_frac       0.45571008      1.00725575      0.63273751 C
atom_frac       0.56382008      0.55653347      0.60968487 C
atom_frac       0.55897143      0.08197167      0.42508473 C
atom_frac       0.87266680      0.46688339      0.38410261 C
atom_frac       0.50214783      0.43677144      0.38225141 C
atom_frac       0.90097422      0.39499613      0.57096219 C
atom_frac       0.53687920      0.09923214      0.56729632 C
atom_frac       0.58752976      0.49398867      0.51712885 C
atom_frac       0.39824201      0.89351303      0.57130383 C
atom_frac       0.08635224      0.50036066      0.59949685 C
atom_frac       0.45919862      0.55525915      0.58341461 C
atom_frac       0.05802502      0.57372632      0.41323055 C
atom_frac       0.41844921      0.87938901      0.42534413 C
atom_frac       0.37386195      0.49824324      0.44869834 C
atom_frac       0.52417991     -0.05314678      0.19463564 Cl
atom_frac      -0.07894132      0.63715161      0.09102112 Cl
atom_frac       0.29619639      0.36433062      0.20395959 Cl
atom_frac       1.03847262      0.32703716      0.89190048 Cl
atom_frac       0.43277447      1.02704797      0.80228180 Cl
atom_frac       0.66469434      0.62542363      0.76549467 Cl
atom_frac       0.67764631      0.33977999      0.44523846 Fe
atom_frac       0.28168499      0.63787295      0.54245683 Fe
atom_frac       0.45974269      0.38157755      0.08988014 H
atom_frac       0.68437500      0.19525031      0.82673078 H
atom_frac       0.27734977      0.77488386      0.16003832 H
atom_frac       0.44603010      0.47100029      0.87463340 H
atom_frac       0.80809384      0.24688123      0.82853114 H
atom_frac       0.15370468      0.70643319      0.15253158 H
atom_frac       0.52236885      0.31347204      0.84626159 H
atom_frac       0.86714567      0.29744122      0.10674503 H
atom_frac       0.09175248      0.87495397      0.88159085 H
atom_frac       0.11429543      0.65625130      0.87612873 H
atom_frac       0.85959995      0.06468707      0.09179753 H
atom_frac       0.33368347      0.26805032      0.78538110 H
atom_frac       0.53433406      0.22371053      0.07134713 H
atom_frac       0.73331469      0.23723789      0.11571717 H
atom_frac       0.22747747      0.94885487      0.88606115 H
atom_frac       0.24969264      0.73395891      0.88057992 H
atom_frac       0.72467277      0.01191800      0.09575759 H
atom_frac       0.33406873      0.18947218      1.00810572 H
atom_frac       0.60775145      0.39414026      1.01454029 H
atom_frac       0.76769580      0.38502640      0.94687780 H
atom_frac       0.18118809      0.94591556      1.05532447 H
atom_frac       0.21830012      0.58217470      0.04635338 H
atom_frac       0.75677495      0.00388740     -0.08151351 H
atom_frac       0.27796375      0.33615790      0.88233080 H
atom_frac       0.44498199      0.37365369      0.96377313 N
atom_frac       0.76167703      0.19965551      0.91594335 N
atom_frac       0.20148374      0.75933976      0.06834564 N
atom_frac       0.63189530      0.17393182      0.36615370 O
atom_frac       0.77346981      0.44379226      0.30063962 O
atom_frac       0.53176022      0.38569885      0.29878281 O
atom_frac       0.82195241      0.31698038      0.62685340 O
atom_frac       0.59811830      0.20206385      0.62441038 O
atom_frac       0.68053171      0.48042670      0.54422706 O
atom_frac       0.32694345      0.79955786      0.63181148 O
atom_frac       0.18572516      0.52272205      0.68324480 O
atom_frac       0.42835046      0.59669998      0.67623210 O
atom_frac       0.13654768      0.65416581      0.35797505 O
atom_frac       0.35509709      0.78010271      0.36325332 O
atom_frac       0.27989342      0.50410165      0.42902865 O
# 
# What follows is the current estimated Hessian matrix constructed by the BFGS algorithm.
# This is NOT the true Hessian matrix of the system.
# If you do not want this information here, switch it off using the "hessian_to_restart_geometry" keyword.
# 
trust_radius             0.0143227806
hessian_file
