# 
# This is the geometry file that corresponds to the current relaxation step.
# If you do not want this file to be written, set the "write_restart_geometry" flag to .false.
#  aims_uuid : 6360D332-7048-409E-A895-236E6E010C93                                
# 
lattice_vector     11.37164067     -6.55781291     -0.00721094
lattice_vector      0.09500229     13.11857313      0.00679446
lattice_vector      0.00591031     -0.01146128      8.91621217
atom_frac       0.28537720      0.07359320      0.35479293 C
atom_frac       0.91146918      0.27415540      0.22014038 C
atom_frac       0.71100690      0.62554063      0.20416829 C
atom_frac       0.87238398      0.63776386      0.79957093 C
atom_frac       0.85170612      0.14115908      0.64153675 C
atom_frac       0.37335654      0.24377653      0.83449123 C
atom_frac       0.71644838      0.92623471      0.64618432 C
atom_frac       0.08893225      0.72761669      0.78109086 C
atom_frac       0.28706927      0.37274639      0.79432732 C
atom_frac       0.12792944      0.36407065      0.19947057 C
atom_frac       0.14924911      0.85892311      0.35973367 C
atom_frac       0.62476897      0.75445968      0.16313721 C
atom_frac       0.55611113      0.01687073      0.35944457 C
atom_frac      -0.01760445      0.54350538      0.36369415 C
atom_frac       0.45303005      0.43601196      0.36910978 C
atom_frac       0.01631396      0.45719051      0.63692744 C
atom_frac       0.44669677     -0.01689069      0.64236393 C
atom_frac       0.54585064      0.56285350      0.63038420 C
atom_frac       0.59522607      0.11146547      0.45781303 C
atom_frac       0.88672076      0.48177164      0.45860658 C
atom_frac       0.51632528      0.40337212      0.46503203 C
atom_frac       0.90429241      0.43535023      0.60014323 C
atom_frac       0.53654974      0.09385198      0.60321387 C
atom_frac       0.56555601      0.46971567      0.59838131 C
atom_frac       0.40759081      0.88841249      0.54384267 C
atom_frac       0.11210854      0.51897851      0.54188569 C
atom_frac       0.48267760      0.59560362      0.53456163 C
atom_frac       0.09453539      0.56551031      0.40066429 C
atom_frac       0.46622389      0.90595748      0.39869465 C
atom_frac       0.43351536      0.52928588      0.40076508 C
atom_frac       0.61647089      0.03594826      0.18197069 Cl
atom_frac      -0.04014755      0.58628223      0.18800259 Cl
atom_frac       0.40394739      0.36267724      0.19937040 Cl
atom_frac       0.03914928      0.41453661      0.81256227 Cl
atom_frac       0.38569086     -0.03610257      0.81943812 Cl
atom_frac       0.59479006      0.63596657      0.80023089 Cl
atom_frac       0.66395622      0.33212657      0.56946769 Fe
atom_frac       0.33497373      0.66768730      0.42997849 Fe
atom_frac       0.11811594     -0.01240610      0.44782860 H
atom_frac       0.00697262      0.18673064      0.21360077 H
atom_frac       0.60740125      0.65566866      0.35116985 H
atom_frac      -0.00657616      0.81509325      0.78461654 H
atom_frac       0.88385561      0.01307249      0.55373716 H
atom_frac       0.39079072      0.34299517      0.64690104 H
atom_frac       0.11723676     -0.01482510      0.26620342 H
atom_frac       0.00324047      0.24532481      0.05376087 H
atom_frac       0.74051079      0.76936557      0.32958953 H
atom_frac      -0.00373742      0.75727824      0.94544391 H
atom_frac       0.88437355      0.01536940      0.73527916 H
atom_frac       0.25758772      0.22924165      0.66825910 H
atom_frac       0.32892486      0.06435202      0.25631622 H
atom_frac       0.91149959      0.34591712      0.15935912 H
atom_frac       0.78340891      0.67792868      0.12879526 H
atom_frac       0.86744474      0.56009312      0.85002425 H
atom_frac       0.81129642      0.15375869      0.74095276 H
atom_frac       0.30308664      0.18686363      0.91033703 H
atom_frac       0.67253650      0.93503914      0.74457020 H
atom_frac       0.08850835      0.65603688      0.84282236 H
atom_frac       0.21463129      0.32007957      0.86953161 H
atom_frac       0.13266939      0.44188025      0.14977589 H
atom_frac       0.18890770      0.84587582      0.25989272 H
atom_frac       0.69489929      0.81085069      0.08682855 H
atom_frac       0.32955732      0.06767251      0.45462976 H
atom_frac       0.92289568      0.29451814      0.33901977 H
atom_frac       0.63823676      0.55733082      0.14164566 H
atom_frac       0.86286662      0.62577036      0.67886661 H
atom_frac       0.80735868      0.14925000      0.54318150 H
atom_frac       0.44436688      0.31497897      0.89560058 H
atom_frac       0.67223947      0.93198340      0.54627247 H
atom_frac       0.07818758      0.70682716      0.66232049 H
atom_frac       0.35978437      0.44085798      0.85704073 H
atom_frac       0.13798266      0.37570315      0.32017109 H
atom_frac       0.19400817      0.85084410      0.45764578 H
atom_frac       0.55343684      0.68304946      0.10270441 H
atom_frac       0.28735944      0.15726968      0.35073050 H
atom_frac       0.82978121      0.19342866      0.20123504 H
atom_frac       0.73862365      0.58588629      0.29079249 H
atom_frac       0.80341168      0.65271341      0.84226444 H
atom_frac       0.94433697      0.20597329      0.63884635 H
atom_frac       0.40827186      0.19512623      0.77549116 H
atom_frac       0.71504903      0.84282493      0.65012363 H
atom_frac       0.17051266      0.80841805      0.80024345 H
atom_frac       0.25946921      0.41260590      0.70797120 H
atom_frac       0.19670174      0.34921739      0.15579301 H
atom_frac       0.05654176      0.79442673      0.36324102 H
atom_frac       0.59022821      0.80355656      0.22184193 H
atom_frac       0.16199507     -0.02247749      0.35679051 N
atom_frac       0.01151227      0.26085732      0.16673862 N
atom_frac       0.67195647      0.70336481      0.27250877 N
atom_frac      -0.01139310      0.74113802      0.83259254 N
atom_frac       0.83959214      0.02280712      0.64454560 N
atom_frac       0.32620109      0.29515879      0.72547473 N
atom_frac       0.68063535      0.21432585      0.43165576 O
atom_frac       0.78314390      0.46225583      0.43136443 O
atom_frac       0.53489003      0.31562725      0.44031611 O
atom_frac       0.81423753      0.37770564      0.68332036 O
atom_frac       0.57173581      0.18445736      0.68765871 O
atom_frac       0.62635465      0.43767032      0.68380397 O
atom_frac       0.32195000      0.78573214      0.56874574 O
atom_frac       0.21561328      0.53839953      0.56806032 O
atom_frac       0.46418709      0.68323426      0.55942075 O
atom_frac       0.18491259      0.62341019      0.31840077 O
atom_frac       0.43036782      0.81514049      0.31490879 O
atom_frac       0.37306569      0.56139601      0.31523097 O
# 
# What follows is the current estimated Hessian matrix constructed by the BFGS algorithm.
# This is NOT the true Hessian matrix of the system.
# If you do not want this information here, switch it off using the "hessian_to_restart_geometry" keyword.
# 
trust_radius             0.4000000060
hessian_file
