lattice_vector     11.37164067     -6.55781291     -0.00721094
lattice_vector      0.09500229     13.11857313      0.00679446
lattice_vector      0.00591031     -0.01146128      8.91621217
atom_frac       0.29456369      0.08206663      0.36757527 C
atom_frac       0.91167680      0.24893216      0.28193465 C
atom_frac       0.70635128      0.61389323      0.19552899 C
atom_frac       0.87370540      0.65281370      0.76631114 C
atom_frac       0.81883243      0.12864354      0.70736831 C
atom_frac       0.37304073      0.24903992      0.82593269 C
atom_frac       0.70761531      0.91876841      0.63362013 C
atom_frac       0.08855440      0.75057630      0.72122835 C
atom_frac       0.29195219      0.38393092      0.80275908 C
atom_frac       0.12600927      0.34871210      0.23248677 C
atom_frac       0.18154893      0.87248077      0.29329137 C
atom_frac       0.62670736      0.75000871      0.17286305 C
atom_frac       0.55648173      0.01801292      0.35879159 C
atom_frac      -0.01882813      0.54123403      0.36160442 C
atom_frac       0.45234405      0.43471916      0.37004381 C
atom_frac       0.01748175      0.45993620      0.63810942 C
atom_frac       0.44590353     -0.01787869      0.64171290 C
atom_frac       0.54609054      0.56418355      0.62922455 C
atom_frac       0.59521397      0.11170290      0.45889596 C
atom_frac       0.88636405      0.48083971      0.45829915 C
atom_frac       0.51549651      0.40265868      0.46727677 C
atom_frac       0.90498434      0.43662817      0.60087929 C
atom_frac       0.53597891      0.09321220      0.60409745 C
atom_frac       0.56533952      0.47036162      0.59950548 C
atom_frac       0.40717242      0.88827267      0.54150469 C
atom_frac       0.11236428      0.52023720      0.54118165 C
atom_frac       0.48298089      0.59633452      0.53212936 C
atom_frac       0.09372149      0.56456175      0.39886535 C
atom_frac       0.46644033      0.90670034      0.39650328 C
atom_frac       0.43344619      0.52875974      0.39929030 C
atom_frac       0.61855233      0.03904042      0.18212345 Cl
atom_frac      -0.04213199      0.58234305      0.18573272 Cl
atom_frac       0.40446197      0.36061355      0.20026780 Cl
atom_frac       0.04116744      0.41921929      0.81406217 Cl
atom_frac       0.38321017     -0.03895043      0.81795500 Cl
atom_frac       0.59415120      0.63825597      0.79899284 Cl
atom_frac       0.66397145      0.33227253      0.57279903 Fe
initial_moment 5.0
atom_frac       0.33474847      0.66767773      0.42539861 Fe
initial_moment -5.0
atom_frac       0.11822286     -0.03134722      0.40833467 H
atom_frac       0.02111509      0.17831844      0.30822511 H
atom_frac       0.61804130      0.65235493      0.35771685 H
atom_frac      -0.01873620      0.82354406      0.69334442 H
atom_frac       0.88367959      0.03344148      0.59316520 H
atom_frac       0.37919267      0.34451771      0.63986169 H
atom_frac       0.14646005      0.00486558      0.23367182 H
atom_frac      -0.00232266      0.19591607      0.13388059 H
atom_frac       0.75183374      0.76144425      0.32246580 H
atom_frac       0.00205992      0.80396108      0.86800192 H
atom_frac       0.85546762     -0.00255101      0.76781950 H
atom_frac       0.24590272      0.23517892      0.67768740 H
atom_frac       0.35640556      0.10204896      0.27633245 H
atom_frac       0.90111115      0.30584014      0.20257455 H
atom_frac       0.77271789      0.66244387      0.11113875 H
atom_frac       0.88094452      0.59040856      0.83925073 H
atom_frac       0.75640641      0.11242742      0.79686852 H
atom_frac       0.30973213      0.19887353      0.91325114 H
atom_frac       0.64550594      0.89838676      0.72459956 H
atom_frac       0.09698834      0.69219886      0.80032248 H
atom_frac       0.22655219      0.33602994      0.88835129 H
atom_frac       0.11684586      0.40991280      0.15939787 H
atom_frac       0.24360854      0.88826966      0.20345131 H
atom_frac       0.69088355      0.80083289      0.08734624 H
atom_frac       0.32636163      0.05809656      0.46659226 H
atom_frac       0.92859488      0.28821484      0.39278097 H
atom_frac       0.62737538      0.54644797      0.14220698 H
atom_frac       0.85399503      0.61749769      0.65336684 H
atom_frac       0.79052589      0.15494757      0.60725074 H
atom_frac       0.45250415      0.31998458      0.87410445 H
atom_frac       0.67551197      0.94202089      0.53426200 H
atom_frac       0.07261567      0.71238182      0.60977938 H
atom_frac       0.37128805      0.45222862      0.85452902 H
atom_frac       0.14678147      0.38498333      0.34490775 H
atom_frac       0.20976569      0.84574585      0.39309142 H
atom_frac       0.54780362      0.67981700      0.12255216 H
atom_frac       0.28449270      0.15807550      0.38960931 H
atom_frac       0.83313783      0.16362915      0.28244595 H
atom_frac       0.73856056      0.57410841      0.27618767 H
atom_frac       0.80446633      0.66915625      0.80418546 H
atom_frac       0.90560485      0.19712127      0.74026137 H
atom_frac       0.39652519      0.19326799      0.76174149 H
atom_frac       0.71865765      0.84328083      0.61205527 H
atom_frac       0.16782022      0.83531534      0.72267854 H
atom_frac       0.25872756      0.42267179      0.72214485 H
atom_frac       0.19555816      0.33322807      0.19355949 H
atom_frac       0.09445321      0.80447810      0.26070089 H
atom_frac       0.60247304      0.80504742      0.23735385 H
atom_frac       0.17913284     -0.01768216      0.32499581 N
atom_frac       0.01365991      0.23626277      0.23634558 N
atom_frac       0.67774908      0.69666377      0.27280179 N
atom_frac      -0.01306474      0.76445302      0.76503035 N
atom_frac       0.82245896      0.01932717      0.67623003 N
atom_frac       0.32044171      0.30085897      0.72586256 N
atom_frac       0.68108288      0.21458200      0.43472158 O
atom_frac       0.78244915      0.46134990      0.43225527 O
atom_frac       0.53384625      0.31457433      0.44433848 O
initial_moment 1.0
atom_frac       0.81508239      0.37899546      0.68455611 O
initial_moment 1.0
atom_frac       0.57145227      0.18326465      0.68958527 O
atom_frac       0.62635920      0.43898406      0.68531533 O
atom_frac       0.32106391      0.78563738      0.56446135 O
initial_moment 0.0
atom_frac       0.21612260      0.53946311      0.56601157 O
atom_frac       0.46473009      0.68431127      0.55511863 O
atom_frac       0.18391395      0.62227272      0.31604142 O
atom_frac       0.43051719      0.81641465      0.31180742 O
atom_frac       0.37311749      0.56038707      0.31296680 O
