lattice_vector     11.44057932     -6.28898809     -0.31059128
lattice_vector      0.32476398     13.52027157     -0.31243895
lattice_vector     -0.31361580     -0.56856663      7.98502294
atom_frac       0.21472890     -0.06227494      0.34208680 C
atom_frac       0.63593604      0.35361074      0.04969189 C
atom_frac       0.71999831      0.64198306      0.30377646 C
atom_frac       1.22347702      0.72122069      0.96511456 C
atom_frac       0.88386180      0.15849744      0.42573674 C
atom_frac       0.38784834      0.25211785      0.75307328 C
atom_frac       0.78707867      1.06268061      0.66105554 C
atom_frac       0.36414436      0.64686449      0.95064557 C
atom_frac       0.28079213      0.35907133      0.69557706 C
atom_frac      -0.22405039      0.27847651      0.03516782 C
atom_frac       0.11204360      0.83862795      0.57124747 C
atom_frac       0.61230221      0.74844848      0.24670376 C
atom_frac       0.53527099     -0.00901562      0.34299681 C
atom_frac      -0.02357933      0.53842925      0.35845971 C
atom_frac       0.42975550      0.42567696      0.36754929 C
atom_frac       0.02399104      0.46097790      0.64164584 C
atom_frac       0.46442933      0.00893717      0.65740850 C
atom_frac       0.57113185      0.57474949      0.63209040 C
atom_frac       0.57552145      0.09744632      0.43046815 C
atom_frac       0.88303460      0.46145402      0.43665333 C
atom_frac       0.50880143      0.40121249      0.45152300 C
atom_frac       0.91097621      0.42337470      0.57909093 C
atom_frac       0.54061465      0.10649550      0.59365369 C
atom_frac       0.58152313      0.47758093      0.58918461 C
atom_frac       0.42423753      0.90244635      0.56997391 C
atom_frac       0.11736283      0.53798372      0.56346770 C
atom_frac       0.49203360      0.59918972      0.54821393 C
atom_frac       0.08944194      0.57602341      0.42096261 C
atom_frac       0.45917728      0.89344030      0.40679952 C
atom_frac       0.41931767      0.52280674      0.41054107 C
atom_frac       0.57935260     -0.01881033      0.14055238 Cl
atom_frac      -0.04942646      0.58206092      0.17078852 Cl
atom_frac       0.32689856      0.32065628      0.21700840 Cl
atom_frac       0.04971534      0.41742703      0.82944492 Cl
atom_frac       0.41973406      0.01879212      0.85943199 Cl
atom_frac       0.67398355      0.67974892      0.78268058 Cl
atom_frac       0.65974012      0.32365081      0.52976772 V
initial_moment 2.0
atom_frac       0.34059083      0.67628717      0.47061347 V
initial_moment 1.0
atom_frac       0.06380158     -0.20757585      0.32154286 H
atom_frac      -0.36419896      0.22398606      0.17600371 H
atom_frac       0.77713533      0.78453094      0.18495646 H
atom_frac       0.36370682      0.77627698      0.82440769 H
atom_frac       0.93862777      0.20694831      0.67334975 H
atom_frac       0.22315187      0.21666207      0.81483225 H
atom_frac       0.17541825     -0.26971096      0.36687645 H
atom_frac      -0.39754016      0.19404596     -0.03512242 H
atom_frac       0.67754232      0.67491153      0.07032037 H
atom_frac       0.39695541      0.80619701      1.03559266 H
atom_frac       0.82534695      0.26938220      0.63362855 H
atom_frac       0.32300617      0.32619282      0.92923482 H
atom_frac       0.29731670     -0.02455766      0.41675139 H
atom_frac       0.64966351      0.37852261     -0.07640693 H
atom_frac       0.63872576      0.56644858      0.30705984 H
atom_frac       1.19833284      0.68598235      1.08268466 H
atom_frac       0.94735937      0.23939326      0.39252014 H
atom_frac       0.47147312      0.32610305      0.76346252 H
atom_frac       0.70177159      1.02657574      0.59435517 H
atom_frac       0.35051497      0.62189287      1.07671561 H
atom_frac       0.36222489      0.43441262      0.69220520 H
atom_frac      -0.19897317      0.31320758     -0.08276830 H
atom_frac       0.04748900      0.75711750      0.60087155 H
atom_frac       0.52884917      0.67425906      0.23649154 H
atom_frac       0.17730666     -0.00426052      0.35560800 H
atom_frac       0.69605252      0.41937591      0.14354421 H
atom_frac       0.74689724      0.68695684      0.42991294 H
atom_frac       1.16926401      0.66224830      0.85959776 H
atom_frac       0.80355727      0.13210679      0.34911950 H
atom_frac       0.36661748      0.21512328      0.62240506 H
atom_frac       0.82161271      1.00261216      0.64070904 H
atom_frac       0.30421951      0.58102256      0.85671661 H
atom_frac       0.25380477      0.31397910      0.56952043 H
atom_frac      -0.16961379      0.33771544      0.14027980 H
atom_frac       0.19053741      0.86457615      0.65210101 H
atom_frac       0.63354991      0.78555945      0.37731767 H
atom_frac       0.23142932     -0.07326358      0.21088039 H
atom_frac       0.54814755      0.33077523      0.08231613 H
atom_frac       0.78552642      0.62095547      0.25598542 H
atom_frac       1.21827508      0.79921657      0.96579383 H
atom_frac       0.91620377      0.09714793      0.39827896 H
atom_frac       0.38900604      0.19219101      0.83295999 H
atom_frac       0.77701626      1.07512121      0.79475948 H
atom_frac       0.45201234      0.67006382      0.91804967 H
atom_frac       0.21545488      0.38043689      0.74319168 H
atom_frac      -0.21916543      0.20036907      0.03521769 H
atom_frac       0.07895941      0.89956358      0.59657927 H
atom_frac       0.61077460      0.80818711      0.16674300 H
atom_frac       0.13869443     -0.17095118      0.39618781 N
atom_frac      -0.34462944      0.25472647      0.05841979 N
atom_frac       0.70101118      0.71444641      0.19197900 N
atom_frac       0.34420721      0.74546886      0.94198633 N
atom_frac       0.86206278      0.17022185      0.60272328 N
atom_frac       0.29942775      0.28654967      0.80765384 N
atom_frac       0.64888198      0.19113152      0.37182898 O
atom_frac       0.77457656      0.42028907      0.38076742 O
atom_frac       0.52132763      0.31072596      0.41117366 O
initial_moment 1.0
atom_frac       0.81900608      0.34328296      0.64843663 O
initial_moment 1.0
atom_frac       0.58597450      0.20813485      0.68053510 O
atom_frac       0.65406903      0.45087093      0.66685962 O
atom_frac       0.35084845      0.80871463      0.62849314 O
initial_moment -1.0
atom_frac       0.22583981      0.57930617      0.61943941 O
atom_frac       0.47934213      0.68956170      0.58876398 O
atom_frac       0.18140007      0.65610958      0.35165540 O
atom_frac       0.41386660      0.79184933      0.31982065 O
atom_frac       0.34660926      0.54940589      0.33307223 O
