# 
# This is the geometry file that corresponds to the current relaxation step.
# If you do not want this file to be written, set the "write_restart_geometry" flag to .false.
#  aims_uuid : EEBDBDFE-CBA4-4652-ACA9-85ABF516BF3F                                
# 
lattice_vector     11.44057932     -6.28898809     -0.31059128
lattice_vector      0.32476398     13.52027157     -0.31243895
lattice_vector     -0.31361580     -0.56856663      7.98502294
atom_frac       0.21341265     -0.06289914      0.32971390 C
atom_frac       0.63100030      0.34864204      0.05138352 C
atom_frac       0.71944084      0.63967743      0.29798972 C
atom_frac       1.22821123      0.72444590      0.96576055 C
atom_frac       0.88972543      0.15923607      0.44029751 C
atom_frac       0.38322110      0.24948557      0.75496132 C
atom_frac       0.78639365      1.06270013      0.66998337 C
atom_frac       0.36900212      0.65131097      0.94853470 C
atom_frac       0.28057403      0.36032360      0.70210400 C
atom_frac      -0.22824462      0.27546650      0.03407362 C
atom_frac       0.11053042      0.84082153      0.55988058 C
atom_frac       0.61674544      0.75045974      0.24503454 C
atom_frac       0.53582492     -0.00886838      0.34294416 C
atom_frac      -0.02412464      0.53780668      0.35747031 C
atom_frac       0.42875523      0.42496616      0.36848550 C
atom_frac       0.02410904      0.46211240      0.64242532 C
atom_frac       0.46414255      0.00882994      0.65698853 C
atom_frac       0.57121436      0.57499569      0.63151155 C
atom_frac       0.57586761      0.09736053      0.43092281 C
atom_frac       0.88283318      0.46104250      0.43642199 C
atom_frac       0.50783833      0.40069494      0.45261097 C
atom_frac       0.91111874      0.42374460      0.57924443 C
atom_frac       0.54054331      0.10637983      0.59362725 C
atom_frac       0.58079867      0.47734803      0.58964562 C
atom_frac       0.42410148      0.90260233      0.56901021 C
atom_frac       0.11714962      0.53888079      0.56347809 C
atom_frac       0.49213683      0.59927146      0.54737611 C
atom_frac       0.08886571      0.57617340      0.42064987 C
atom_frac       0.45942147      0.89358209      0.40630224 C
atom_frac       0.41917975      0.52261892      0.41034015 C
atom_frac       0.58060009     -0.01820349      0.14226982 Cl
atom_frac      -0.05012209      0.57981361      0.17000551 Cl
atom_frac       0.32689432      0.32094282      0.21829074 Cl
atom_frac       0.05010602      0.42011306      0.82989585 Cl
atom_frac       0.41939757      0.01815482      0.85768946 Cl
atom_frac       0.67306214      0.67901965      0.78172120 Cl
atom_frac       0.65932108      0.32366676      0.53044447 V
atom_frac       0.34066109      0.67629444      0.46950518 V
atom_frac       0.06176145     -0.20754938      0.31057259 H
atom_frac      -0.36502795      0.22191622      0.18076648 H
atom_frac       0.77991635      0.78272158      0.18060198 H
atom_frac       0.36505278      0.77806103      0.81919777 H
atom_frac       0.93805870      0.20736241      0.68973727 H
atom_frac       0.22006524      0.21725466      0.81943282 H
atom_frac       0.17376800     -0.27122278      0.36070015 H
atom_frac      -0.40231074      0.18867497     -0.02915926 H
atom_frac       0.67827852      0.67515786      0.06581926 H
atom_frac       0.40226249      0.81125294      1.02915266 H
atom_frac       0.82619441      0.27113920      0.63921718 H
atom_frac       0.32172482      0.32478975      0.93423507 H
atom_frac       0.29663127     -0.02646872      0.40252916 H
atom_frac       0.64387790      0.37283467     -0.07516339 H
atom_frac       0.63684581      0.56591695      0.30289406 H
atom_frac       1.20549922      0.69125498      1.08517090 H
atom_frac       0.95472620      0.24012037      0.40919865 H
atom_frac       0.46767528      0.32230239      0.76367955 H
atom_frac       0.70326050      1.02636859      0.59696073 H
atom_frac       0.35608603      0.62708426      1.07506058 H
atom_frac       0.36318294      0.43406619      0.69719316 H
atom_frac      -0.20558998      0.30860577     -0.08538145 H
atom_frac       0.04562573      0.75998403      0.59127018 H
atom_frac       0.53229401      0.67763645      0.23627240 H
atom_frac       0.17840451     -0.00292107      0.34425954 H
atom_frac       0.69111814      0.41526402      0.14414622 H
atom_frac       0.74849681      0.68434515      0.42408415 H
atom_frac       1.17252040      0.66349626      0.86316359 H
atom_frac       0.81141104      0.13348778      0.35912337 H
atom_frac       0.36042100      0.21260922      0.62434534 H
atom_frac       0.82138405      1.00270817      0.65539891 H
atom_frac       0.30891635      0.58470654      0.85572136 H
atom_frac       0.25148591      0.31567235      0.57600470 H
atom_frac      -0.17249918      0.33645116      0.13659758 H
atom_frac       0.18898281      0.86665012      0.64077281 H
atom_frac       0.63950936      0.78732409      0.37565828 H
atom_frac       0.22843866     -0.07483111      0.19795242 H
atom_frac       0.54332396      0.32551858      0.08472750 H
atom_frac       0.78257722      0.61576381      0.24851001 H
atom_frac       1.22169276      0.80164166      0.96422381 H
atom_frac       0.92194345      0.09753674      0.41543195 H
atom_frac       0.38416251      0.18902116      0.83391608 H
atom_frac       0.77119825      1.07447996      0.80170141 H
atom_frac       0.45669417      0.67445809      0.91524910 H
atom_frac       0.21746398      0.38425853      0.75162925 H
atom_frac      -0.22173499      0.19826809      0.03564223 H
atom_frac       0.07833355      0.90253114      0.58482989 H
atom_frac       0.61581743      0.81092882      0.16607776 H
atom_frac       0.13639432     -0.17024231      0.38535095 N
atom_frac      -0.34822621      0.25097114      0.06129027 N
atom_frac       0.70282133      0.71393723      0.18785341 N
atom_frac       0.34821540      0.74897640      0.93864924 N
atom_frac       0.86354429      0.17012351      0.61469904 N
atom_frac       0.29717111      0.28602858      0.81219146 N
atom_frac       0.64894213      0.19112415      0.37276720 O
atom_frac       0.77435974      0.41970673      0.38141120 O
atom_frac       0.52048964      0.31039586      0.41300505 O
atom_frac       0.81927673      0.34409998      0.64891689 O
atom_frac       0.58557781      0.20784648      0.68003847 O
atom_frac       0.65319726      0.45060384      0.66713447 O
atom_frac       0.35104498      0.80883684      0.62718200 O
atom_frac       0.22562315      0.58023575      0.61851061 O
atom_frac       0.47949307      0.68957641      0.58696699 O
atom_frac       0.18070742      0.65582620      0.35098802 O
atom_frac       0.41439842      0.79211539      0.31989796 O
atom_frac       0.34679363      0.54936580      0.33282363 O
# 
# What follows is the current estimated Hessian matrix constructed by the BFGS algorithm.
# This is NOT the true Hessian matrix of the system.
# If you do not want this information here, switch it off using the "hessian_to_restart_geometry" keyword.
# 
trust_radius             0.2000000030
hessian_file
