lattice_vector  11.7238931656 -6.8198728561 -0.0079498766
lattice_vector   0.0442393273 13.5631256104  0.0080465954
lattice_vector   0.0029063832 -0.0051975651  8.7448978424
atom_frac  0.358999997  0.100000001  0.203999996 C  
atom_frac  0.899999976  0.259000003  0.203999996 C  
atom_frac  0.740999997  0.640999973  0.203999996 C  
atom_frac  0.899999976  0.640999973  0.796000004 C  
atom_frac  0.740999997  0.100000001  0.796000004 C  
atom_frac  0.358999997  0.259000003  0.796000004 C  
atom_frac  0.640999973  0.899999976  0.796000004 C  
atom_frac  0.100000001  0.740999997  0.796000004 C  
atom_frac  0.259000003  0.358999997  0.796000004 C  
atom_frac  0.100000001  0.358999997  0.203999996 C  
atom_frac  0.259000003  0.899999976  0.203999996 C  
atom_frac  0.640999973  0.740999997  0.203999996 C  
atom_frac  0.550000012  0.000000000  0.356900007 C  
atom_frac  0.000000000  0.550000012  0.356900007 C  
atom_frac  0.449999988  0.449999988  0.356900007 C  
atom_frac  0.000000000  0.449999988  0.643100023 C  
atom_frac  0.449999988  0.000000000  0.643100023 C  
atom_frac  0.550000012  0.550000012  0.643100023 C  
atom_frac  0.577199996  0.102100000  0.425700009 C  
atom_frac  0.897899985  0.475100011  0.425700009 C  
atom_frac  0.524900019  0.422800004  0.425700009 C  
atom_frac  0.897899985  0.422800004  0.574299991 C  
atom_frac  0.524900019  0.102100000  0.574299991 C  
atom_frac  0.577199996  0.475100011  0.574299991 C  
atom_frac  0.422800004  0.897899985  0.574299991 C  
atom_frac  0.102100000  0.524900019  0.574299991 C  
atom_frac  0.475100011  0.577199996  0.574299991 C  
atom_frac  0.102100000  0.577199996  0.425700009 C  
atom_frac  0.475100011  0.897899985  0.425700009 C  
atom_frac  0.422800004  0.524900019  0.425700009 C  
atom_frac  0.611379981  0.000000000  0.184100002 Cl 
atom_frac  0.000000000  0.611379981  0.184100002 Cl 
atom_frac  0.388619989  0.388619989  0.184100002 Cl 
atom_frac  0.000000000  0.388619989  0.815900028 Cl 
atom_frac  0.388619989  0.000000000  0.815900028 Cl 
atom_frac  0.611379981  0.611379981  0.815900028 Cl 
atom_frac  0.666666687  0.333333343  0.500000000 Fe 
atom_frac  0.333333343  0.666666687  0.500000000 Fe 
atom_frac  0.250000000  0.000000000  0.356700003 H  
atom_frac  0.000000000  0.250000000  0.356700003 H  
atom_frac  0.750000000  0.750000000  0.356700003 H  
atom_frac  0.000000000  0.750000000  0.643299997 H  
atom_frac  0.750000000  0.000000000  0.643299997 H  
atom_frac  0.250000000  0.250000000  0.643299997 H  
atom_frac  0.194499999  0.000000000  0.211700007 H  
atom_frac  0.000000000  0.194499999  0.211700007 H  
atom_frac  0.805499971  0.805499971  0.211700007 H  
atom_frac  0.000000000  0.805499971  0.788299978 H  
atom_frac  0.805499971  0.000000000  0.788299978 H  
atom_frac  0.194499999  0.194499999  0.788299978 H  
atom_frac  0.384799987  0.084200002  0.107600003 H  
atom_frac  0.915799975  0.300599992  0.107600003 H  
atom_frac  0.699400008  0.615199983  0.107600003 H  
atom_frac  0.915799975  0.615199983  0.892400026 H  
atom_frac  0.699400008  0.084200002  0.892400026 H  
atom_frac  0.384799987  0.300599992  0.892400026 H  
atom_frac  0.615199983  0.915799975  0.892400026 H  
atom_frac  0.084200002  0.699400008  0.892400026 H  
atom_frac  0.300599992  0.384799987  0.892400026 H  
atom_frac  0.084200002  0.384799987  0.107600003 H  
atom_frac  0.300599992  0.915799975  0.107600003 H  
atom_frac  0.615199983  0.699400008  0.107600003 H  
atom_frac  0.418000013  0.120800003  0.282299995 H  
atom_frac  0.879199982  0.297199994  0.282299995 H  
atom_frac  0.702799976  0.582000017  0.282299995 H  
atom_frac  0.879199982  0.582000017  0.717700005 H  
atom_frac  0.702799976  0.120800003  0.717700005 H  
atom_frac  0.418000013  0.297199994  0.717700005 H  
atom_frac  0.582000017  0.879199982  0.717700005 H  
atom_frac  0.120800003  0.702799976  0.717700005 H  
atom_frac  0.297199994  0.418000013  0.717700005 H  
atom_frac  0.120800003  0.418000013  0.282299995 H  
atom_frac  0.297199994  0.879199982  0.282299995 H  
atom_frac  0.582000017  0.702799976  0.282299995 H  
atom_frac  0.344000012  0.163000003  0.189999998 H  
atom_frac  0.837000012  0.180999994  0.189999998 H  
atom_frac  0.819000006  0.656000018  0.189999998 H  
atom_frac  0.837000012  0.656000018  0.810000002 H  
atom_frac  0.819000006  0.163000003  0.810000002 H  
atom_frac  0.344000012  0.180999994  0.810000002 H  
atom_frac  0.656000018  0.837000012  0.810000002 H  
atom_frac  0.163000003  0.819000006  0.810000002 H  
atom_frac  0.180999994  0.344000012  0.810000002 H  
atom_frac  0.163000003  0.344000012  0.189999998 H  
atom_frac  0.180999994  0.837000012  0.189999998 H  
atom_frac  0.656000018  0.819000006  0.189999998 H  
atom_frac  0.256000012  0.000000000  0.252999991 N  
atom_frac  0.000000000  0.256000012  0.252999991 N  
atom_frac  0.744000018  0.744000018  0.252999991 N  
atom_frac  0.000000000  0.744000018  0.746999979 N  
atom_frac  0.744000018  0.000000000  0.746999979 N  
atom_frac  0.256000012  0.256000012  0.746999979 N  
atom_frac  0.645500004  0.200700000  0.370700002 O  
atom_frac  0.799300015  0.444799989  0.370700002 O  
atom_frac  0.555199981  0.354499996  0.370700002 O  
atom_frac  0.799300015  0.354499996  0.629299998 O  
atom_frac  0.555199981  0.200700000  0.629299998 O  
atom_frac  0.645500004  0.444799989  0.629299998 O  
atom_frac  0.354499996  0.799300015  0.629299998 O  
atom_frac  0.200700000  0.555199981  0.629299998 O  
atom_frac  0.444799989  0.645500004  0.629299998 O  
atom_frac  0.200700000  0.645500004  0.370700002 O  
atom_frac  0.444799989  0.799300015  0.370700002 O  
atom_frac  0.354499996  0.555199981  0.370700002 O  
