# 
# This is the geometry file that corresponds to the current relaxation step.
# If you do not want this file to be written, set the "write_restart_geometry" flag to .false.
#  aims_uuid : 4E7A5685-F032-48DB-AB67-F5424D5A9425                                
# 
lattice_vector     15.64728479      0.47535168      0.29979286
lattice_vector     -6.21036541     12.84257738     -0.29786868
lattice_vector      0.20702813     -0.12942996      2.30987716
atom_frac       0.33087075     -0.26116628      0.00768975 C
atom_frac       0.78202549      0.52436095      0.97992609 C
atom_frac       0.67208933      1.26814727      1.00932472 C
atom_frac       0.22071266      0.47637911     -0.01414782 C
atom_frac       0.57674092     -0.00954251      0.25916225 C
atom_frac       1.01032090      0.59245637      0.31640276 C
atom_frac       0.43495705      0.41707098      0.27571026 C
atom_frac      -0.01053191      0.40902011      0.68798114 C
atom_frac       0.42252345      1.00610812      0.73390007 C
atom_frac       0.56070498      0.58208545      0.72760429 C
atom_frac       0.59587989      0.08916453      0.43412097 C
atom_frac       0.92441790      0.51453430      0.39392399 C
atom_frac       0.50885235      0.39904013      0.39320424 C
atom_frac       0.91216579      0.41691067      0.57187477 C
atom_frac       0.50516660      0.09889934      0.63990079 C
atom_frac       0.57443223      0.49146300      0.60756577 C
atom_frac       0.40891755      0.90998491      0.57917019 C
atom_frac       0.07970226      0.48489388      0.59496209 C
atom_frac       0.48501376      0.59542448      0.62152624 C
atom_frac       0.08819122      0.58289684      0.43424035 C
atom_frac       0.49593150      0.89859341      0.35659781 C
atom_frac       0.42146828      0.50508575      0.37951850 C
atom_frac       0.66743122     -0.01609199     -0.09059344 Cl
atom_frac       1.02915913      0.69459309      0.02877958 Cl
atom_frac       0.36737583      0.31505485     -0.03532452 Cl
atom_frac      -0.03039553      0.30772693      0.97492211 Cl
atom_frac       0.33075141      1.01299498      1.08204393 Cl
atom_frac       0.62948396      0.68374318      1.02928789 Cl
atom_frac       0.68409998      0.34497558      0.53559433 Fe
atom_frac       0.31493558      0.65849387      0.47591108 Fe
atom_frac       0.21498823      0.60128240     -0.14477321 H
atom_frac       0.77425580      0.40829724      1.16948188 H
atom_frac       0.34409989      0.60334443     -0.20248081 H
atom_frac       0.63955687      0.39747737      1.17879300 H
atom_frac       0.40187761     -0.26393172      0.18464748 H
atom_frac       0.73164063      0.54007826      0.77648579 H
atom_frac       0.60162603      1.24100452      0.80593134 H
atom_frac       0.27810581      0.47347191      0.19363126 H
atom_frac       0.27339540     -0.24181297      0.07302859 H
atom_frac       0.84708228      0.53107974      0.86363925 H
atom_frac       0.73548271      1.25924385      0.93231287 H
atom_frac       0.14472961      0.43804042      0.11548125 H
atom_frac       0.40049547     -0.22670460     -0.16320449 H
atom_frac       0.77890039      0.57946794      1.25700652 H
atom_frac       0.60864422      1.23748445      1.21693832 H
atom_frac       0.24958374      0.43642808     -0.25246727 H
atom_frac       0.27320839      0.58829038     -0.04828849 N
atom_frac       0.71604799      0.41776311      1.07212942 N
atom_frac       0.67504543      0.16061501      0.42458714 O
atom_frac       0.84858921      0.52375439      0.33827400 O
atom_frac       0.52185026      0.32032916      0.32621964 O
atom_frac       0.82943770      0.34915204      0.61901747 O
atom_frac       0.50742730      0.18411171      0.72678111 O
atom_frac       0.63156260      0.46913119      0.75162969 O
atom_frac       0.32821311      0.83199528      0.57732510 O
atom_frac       0.15046834      0.47274003      0.62642097 O
atom_frac       0.46526615      0.67230291      0.69680116 O
atom_frac       0.16899415      0.65489445      0.39808083 O
atom_frac       0.49564526      0.81285758      0.27423676 O
atom_frac       0.36966991      0.53464916      0.22128230 O
# 
# What follows is the current estimated Hessian matrix constructed by the BFGS algorithm.
# This is NOT the true Hessian matrix of the system.
# If you do not want this information here, switch it off using the "hessian_to_restart_geometry" keyword.
# 
trust_radius             0.4000000060
hessian_file
