# 
# This is the geometry file that corresponds to the current relaxation step.
# If you do not want this file to be written, set the "write_restart_geometry" flag to .false.
#  aims_uuid : DB860567-2BE5-422D-A0B9-A2A43C600082                                
# 
lattice_vector     14.15936219      0.03644169     -0.05531126
lattice_vector     -5.58237744     11.06385099     -0.07302416
lattice_vector     -0.93024604     -0.50756071      4.31048366
atom_frac       0.00482394      0.39353314      0.74997217 C
atom_frac       0.54897374      0.50233236      0.75151550 C
atom_frac       0.44831419     -0.02347076      0.69968811 C
atom_frac       0.54507444      0.90754316      0.28253125 C
atom_frac       0.40426192      0.36455122      0.17967510 C
atom_frac       0.97045932      0.52498320      0.25193290 C
atom_frac       0.89900388      0.37431981      0.60436117 C
atom_frac       0.57390615      0.42623934      0.58511082 C
atom_frac       0.53249573      0.06587189      0.58949777 C
atom_frac       0.57869801      0.03167316      0.37226631 C
atom_frac       0.50129028      0.35628116      0.29769297 C
atom_frac       0.88178084      0.43776072      0.35002533 C
atom_frac       0.07620628      0.54159031      0.38980940 C
atom_frac       0.38033947      0.44219613      0.34652503 C
atom_frac       0.45712341      0.81785934      0.37998487 C
atom_frac       0.41178282      0.85294112      0.59923505 C
atom_frac       0.45316318      0.51185809      0.63472768 C
atom_frac       0.09395556      0.47842759      0.64581824 C
atom_frac       0.81190837      1.06273368      0.68833826 C
atom_frac       0.98453717      0.13967096      0.51672654 C
atom_frac       0.21009724      0.07332523      0.21707417 C
atom_frac       0.16834231      0.88010389      0.38841859 C
atom_frac       0.74863953      0.75818600      0.65198561 C
atom_frac       0.90279392      0.76969912      0.48202981 C
atom_frac       0.02186182      0.31454968      0.05651470 Cl
atom_frac       0.63251398      0.58132378      0.10138224 Cl
atom_frac       0.39116314      0.01491473      0.95619781 Cl
atom_frac       0.60282445      0.86882902      1.02428360 Cl
atom_frac       0.32116520      0.28743557      0.82655697 Cl
atom_frac       0.94786922      0.59836567      0.94269521 Cl
atom_frac       0.66862556      0.29113145      0.41445631 Ti
atom_frac       0.29873293      0.59417577      0.50359707 Ti
atom_frac       0.85775096     -0.04918660      0.46396186 H
atom_frac       0.82807353      1.05130251      0.23658237 H
atom_frac       0.81277900      1.15231118      0.70114791 H
atom_frac       0.99246670      0.23258952      0.51615031 H
atom_frac       0.85463393      1.05283937      0.92602361 H
atom_frac       1.03144892      0.13358540      0.73888595 H
atom_frac       0.72728633      0.99012356      0.63058232 H
atom_frac       1.01440963      0.12033277      0.32621782 H
atom_frac       0.18108073      0.02952438      0.64507881 H
atom_frac       0.00711853      0.96141449      0.12138838 H
atom_frac       0.17964211      1.02435879     -0.03337211 H
atom_frac       0.11415017      0.82093590      0.17319397 H
atom_frac       0.29956810      0.10827546      0.27712634 H
atom_frac       0.25218347      0.90024348      0.38361954 H
atom_frac       0.19318919      0.15191111      0.20596705 H
atom_frac       0.14916537      0.83007421      0.58451908 H
atom_frac       0.77449134      0.78514041      0.21604417 H
atom_frac       0.95739643      0.95368623     -0.01017474 H
atom_frac       0.79712544      0.79350285      0.90431244 H
atom_frac       0.71335245      0.65804598      0.63402847 H
atom_frac       0.68178335      0.78257408      0.60948111 H
atom_frac       0.95378442      0.79534747      0.71929175 H
atom_frac       0.86394082      0.66990210      0.42728657 H
atom_frac      -0.04554594      0.81114574      0.32345904 H
atom_frac       0.86901041      0.04849266      0.46770750 N
atom_frac       0.15320243      0.98910911      0.40625255 N
atom_frac       0.82112016      0.81356849      0.45338632 N
atom_frac       0.81101715      0.30654223      0.69714865 O
atom_frac       0.66652370      0.42047417      0.65352416 O
atom_frac       0.57164424      0.18424125      0.65309908 O
atom_frac       0.64535629      0.12203579      0.25281762 O
atom_frac       0.53959122      0.29930267      0.15032626 O
atom_frac       0.77878101      0.40919493      0.23523214 O
atom_frac       0.16079967      0.59857292      0.27425465 O
atom_frac       0.29119558      0.45517022      0.27645226 O
atom_frac       0.41191980      0.70007329      0.30184360 O
atom_frac       0.34213402      0.76244910      0.70826420 O
atom_frac       0.41882122      0.57246454      0.78350655 O
atom_frac       0.19509968      0.49632699      0.73375627 O
# 
# What follows is the current estimated Hessian matrix constructed by the BFGS algorithm.
# This is NOT the true Hessian matrix of the system.
# If you do not want this information here, switch it off using the "hessian_to_restart_geometry" keyword.
# 
trust_radius             0.7012377342
hessian_file
