lattice_vector     11.05031874     -5.91870572      0.18825254
lattice_vector      0.62328584     13.82503697     -1.51550556
lattice_vector      0.29048913     -3.02540955      8.42845021
atom_frac       0.34618592      0.02366526      0.16021559 C
atom_frac       0.84331147      0.05667889      0.36217513 C
atom_frac       0.64343388      0.44477547     -0.00132800 C
atom_frac       0.95236960      0.79239287      0.61240483 C
atom_frac       0.75604315      0.18810539      0.96614593 C
atom_frac       0.17763993      0.38873820      1.01733082 C
atom_frac       0.65387282      0.97635814      0.83965759 C
atom_frac       0.15661125      0.94342997      0.63811726 C
atom_frac       0.35671411      0.55542914      1.00168299 C
atom_frac       0.04759001      0.20764159      0.38759545 C
atom_frac       0.24412578      0.81189835      0.03383379 C
atom_frac       0.82251041      0.61118642     -0.01779010 C
atom_frac       0.53054006     -0.05688760      0.33712131 C
atom_frac      -0.00601602      0.51571411      0.35844018 C
atom_frac       0.43757476      0.41469828      0.35603325 C
atom_frac       0.00594983      0.48424467      0.64151793 C
atom_frac       0.46937680      0.05684035      0.66282945 C
atom_frac       0.56232641      0.58524128      0.64400066 C
atom_frac       0.56627439      0.06337326      0.40093892 C
atom_frac       0.89540727      0.43658018      0.40697718 C
atom_frac       0.51707499      0.39486721      0.41709822 C
atom_frac       0.90081490      0.42336018      0.55275628 C
atom_frac       0.53444187      0.12073484      0.56622024 C
atom_frac       0.57845688      0.48096063      0.56342990 C
atom_frac       0.43364446      0.93658477      0.59901523 C
atom_frac       0.10452482      0.56338839      0.59299097 C
atom_frac       0.48282228      0.60507306      0.58294046 C
atom_frac       0.09912030      0.57659312      0.44720037 C
atom_frac       0.46548040      0.87922252      0.43373555 C
atom_frac       0.42144002      0.51897674      0.43660514 C
atom_frac       0.56586617     -0.13120324      0.13440184 Cl
atom_frac      -0.01252805      0.53841336      0.18565354 Cl
atom_frac       0.35522168      0.30917579      0.18133187 Cl
atom_frac       0.01248866      0.46151729      0.81427219 Cl
atom_frac       0.43410138      0.13118891      0.86556400 Cl
atom_frac       0.64470414      0.69078087      0.81867416 Cl
atom_frac       0.66074555      0.30117023      0.45954002 Ti
atom_frac       0.33918591      0.69877713      0.54041489 Ti
atom_frac       0.20331122     -0.06786054      0.00444407 H
atom_frac       0.00005804      0.03475892      0.34631109 H
atom_frac       0.77469529      0.43742447     -0.18631354 H
atom_frac      -0.00014495      0.96531813      0.65391112 H
atom_frac       0.79665003      0.06776655      0.99559384 H
atom_frac       0.22518490      0.56237577      1.18628275 H
atom_frac       0.32695535     -0.08171898     -0.09868425 H
atom_frac      -0.02146248      0.05204275      0.18110748 H
atom_frac       0.69324351      0.49669138     -0.20190686 H
atom_frac       0.02128853      0.94792088      0.81904920 H
atom_frac       0.67300254      0.08168163      1.09857718 H
atom_frac       0.30665392      0.50313406      1.20185183 H
atom_frac       0.42705818      0.01556345      0.17224050 H
atom_frac       0.81211285      0.10917889      0.33312756 H
atom_frac       0.59703596      0.50290266      0.07108274 H
atom_frac       0.98589451      0.74279434      0.64442953 H
atom_frac       0.67693287      0.19119131      0.93655469 H
atom_frac       0.22220442      0.32812194      0.95294438 H
atom_frac       0.57314480      0.98460663      0.82742492 H
atom_frac       0.18779364      0.89089011      0.66709433 H
atom_frac       0.40353806      0.49764046      0.92967316 H
atom_frac       0.01406387      0.25721926      0.35552878 H
atom_frac       0.32330507      0.80887281      0.06332827 H
atom_frac       0.77805550      0.67191665      0.04632828 H
atom_frac       0.29005774      0.02350625      0.27182286 H
atom_frac       0.83440508      0.07856217      0.49637268 H
atom_frac       0.68537303      0.43474520      0.08467564 H
atom_frac       0.95439618      0.76366703      0.47695582 H
atom_frac       0.82115097      0.18993839      0.86356335 H
atom_frac       0.13417763      0.39279463      0.92649447 H
atom_frac       0.71014442      0.97637568      0.72813196 H
atom_frac       0.16559073      0.92163248      0.50394020 H
atom_frac       0.31487847      0.56525007      0.91531775 H
atom_frac       0.04564171      0.23646401      0.52305797 H
atom_frac       0.17909774      0.81006779      0.13650659 H
atom_frac       0.86593742      0.60729781      0.07326172 H
atom_frac       0.36894330      0.10482370      0.14657038 H
atom_frac       0.79214172     -0.03608321      0.29356647 H
atom_frac       0.58110320      0.35992486     -0.08093395 H
atom_frac       0.86194151      0.78067185      0.66230531 H
atom_frac       0.79296991      0.26153223      1.08326886 H
atom_frac       0.11131215      0.35887092      1.10521083 H
atom_frac       0.63086488      0.89516783      0.85337316 H
atom_frac       0.20774134      1.03617847      0.70686331 H
atom_frac       0.41867545      0.64040749      1.08159806 H
atom_frac       0.13798909      0.21927396      0.33759957 H
atom_frac       0.20711689      0.73844761     -0.08323205 H
atom_frac       0.88882803      0.64074251     -0.10591505 H
atom_frac       0.27964889     -0.07747657      0.01527357 N
atom_frac      -0.03005270      0.08283694      0.31314420 N
atom_frac       0.73432671      0.49541364     -0.10869371 N
atom_frac       0.02995052      0.91720385      0.68702625 N
atom_frac       0.72036963      0.07744093      0.98466761 N
atom_frac       0.26566634      0.50449156      1.10862583 N
atom_frac       0.62889026      0.13241934      0.31862760 O
atom_frac       0.79225752      0.37203872      0.33021746 O
atom_frac       0.54079049      0.29986641      0.35151110 O
atom_frac       0.80007008      0.35155162      0.59481207 O
atom_frac       0.56725085      0.23417381      0.61780302 O
atom_frac       0.65050845      0.45298919      0.61349372 O
atom_frac       0.37104306      0.86753754      0.68132812 O
atom_frac       0.20767311      0.62793307      0.66975861 O
atom_frac       0.45912292      0.70008061      0.64849160 O
atom_frac       0.19987696      0.64837661      0.40511823 O
atom_frac       0.43269708      0.76578907      0.38217738 O
atom_frac       0.34940722      0.54695417      0.38651561 O
