# 
# This is the geometry file that corresponds to the current relaxation step.
# If you do not want this file to be written, set the "write_restart_geometry" flag to .false.
#  aims_uuid : C1F19B9B-3B26-43EC-ADB1-075A858F6243                                
# 
lattice_vector     42.14480368      0.04552929     -0.10610652
lattice_vector     -6.14940485     11.37787192     -0.22699165
lattice_vector      0.77373705     -1.03365589      8.30478095
atom_frac       0.17597816      0.56000369      0.62086168 C
atom_frac       0.51031409      0.55640881      0.61625947 C
atom_frac       0.84220833      0.52703968      0.60503866 C
atom_frac       0.18986850      0.09746458      0.36158974 C
atom_frac       0.52403956      0.09146682      0.35346639 C
atom_frac       0.85980194      0.06572887      0.36444368 C
atom_frac       0.30011776      0.47206603      0.37381693 C
atom_frac       0.63356841      0.46389834      0.36772562 C
atom_frac       0.96594193      0.45507732      0.36455378 C
atom_frac       0.18004027      0.43243865      0.36935953 C
atom_frac       0.51366578      0.42736298      0.36411508 C
atom_frac       0.84290142      0.38921074      0.35759275 C
atom_frac       0.29938652      0.43221359      0.52863850 C
atom_frac       0.63183602      0.42637606      0.52539140 C
atom_frac       0.96583111      0.41678984      0.52005048 C
atom_frac       0.17704576      0.11726242      0.53030607 C
atom_frac       0.51047483      0.11261410      0.52011484 C
atom_frac       0.84542388      0.08888247      0.52795994 C
atom_frac       0.19055494      0.48830315      0.53879042 C
atom_frac       0.52485384      0.48490409      0.53331161 C
atom_frac       0.85605691      0.45315066      0.52308330 C
atom_frac       0.13897333      0.90638038      0.52112772 C
atom_frac       0.47290707      0.90190849      0.51447691 C
atom_frac       0.80732939      0.87856794      0.52615216 C
atom_frac       0.03088876      0.52124435      0.52246463 C
atom_frac       0.36458341      0.52511703      0.52362362 C
atom_frac       0.69708911      0.51224695      0.52418453 C
atom_frac       0.15173701      0.57930385      0.54279086 C
atom_frac       0.48564679      0.57471062      0.53970028 C
atom_frac       0.81738463      0.54382368      0.52831706 C
atom_frac       0.03108319      0.56023094      0.36686095 C
atom_frac       0.36511068      0.56455621      0.36810031 C
atom_frac       0.69878633      0.55203007      0.36863278 C
atom_frac       0.15094808      0.88599396      0.35102482 C
atom_frac       0.48527927      0.88015929      0.34561304 C
atom_frac       0.82196791      0.85534748      0.36269230 C
atom_frac       0.14166538      0.52404220      0.37203329 C
atom_frac       0.47488898      0.51788918      0.36979226 C
atom_frac       0.80445775      0.48106252      0.36308999 C
atom_frac       0.17574833      0.98226073      0.27603812 C
atom_frac       0.51033740      0.97568177      0.27002531 C
atom_frac       0.84794229      0.94924410      0.28709546 C
atom_frac       0.33273876      0.53852785      0.29807263 C
atom_frac       0.66695200      0.52990867      0.29705813 C
atom_frac       0.99859943      0.52848734      0.29344971 C
atom_frac       0.15645114      0.45312741      0.28960679 C
atom_frac       0.48932624      0.44636818      0.28667976 C
atom_frac       0.81742872      0.40460934      0.28258348 C
atom_frac       0.33172709      0.45775514      0.59850450 C
atom_frac       0.66374573      0.44940256      0.59729929 C
atom_frac       0.99813252      0.44881345      0.59434230 C
atom_frac       0.15218059      1.02134617      0.60541685 C
atom_frac       0.48561436      1.01744560      0.59633847 C
atom_frac       0.82000150      0.99523660      0.60502431 C
atom_frac       0.18876436      0.95967430      0.07861183 Cl
atom_frac       0.52416642      0.95145394      0.07441271 Cl
atom_frac       0.86428421      0.92219573      0.09852271 Cl
atom_frac       0.33301409      0.58089030      0.11525335 Cl
atom_frac       0.66923094      0.57637308      0.11481740 Cl
atom_frac       0.14627743      0.39401486      0.09047326 Cl
atom_frac       0.47765391      0.38416798      0.08958480 Cl
atom_frac       0.80293197      0.33304802      0.09110460 Cl
atom_frac       0.33126645      0.41411925      0.78046247 Cl
atom_frac       0.66198759      0.40708327      0.78239390 Cl
atom_frac       0.99750021      0.40656672      0.77763783 Cl
atom_frac       0.18735679      0.62131718      0.81873784 Cl
atom_frac       0.52212119      0.61884858      0.81363996 Cl
atom_frac       0.85545353      0.59610804      0.79880242 Cl
atom_frac       0.80449194      1.02321151      0.79550623 Cl
atom_frac       0.47134983      1.04131057      0.79054563 Cl
atom_frac       0.13878920      1.04404939      0.80157604 Cl
atom_frac       0.22601052      0.34666414      0.46163338 Fe
  initial_moment 5.0
atom_frac       0.55924447      0.34102112      0.44723836 Fe
  initial_moment 5.0
atom_frac       0.89240269      0.31584975      0.43141521 Fe
  initial_moment 5.0
atom_frac       0.10420939      0.65757522      0.44544284 Fe
  initial_moment 5.0
atom_frac       0.43799371      0.65288821      0.44302481 Fe
  initial_moment 5.0
atom_frac       0.77139080      0.62912439      0.43599948 Fe
  initial_moment 5.0
atom_frac       0.21350317      0.19099584      0.30835960 O
atom_frac       0.54785553      0.18452341      0.29991141 O
atom_frac       0.88276355      0.15808222      0.30590112 O
atom_frac       0.26870398      0.43991914      0.31862780 O
atom_frac       0.60262482      0.43104520      0.30580174 O
  initial_moment -1.0
atom_frac       0.93471448      0.41604867      0.30402832 O
atom_frac       0.19462600      0.36738379      0.30717902 O
atom_frac       0.52817339      0.36285999      0.30074001 O
atom_frac       0.85694173      0.32327454      0.29492135 O
atom_frac       0.26780352      0.37538154      0.58921852 O
atom_frac       0.60019754      0.37375314      0.58742395 O
atom_frac       0.93414145      0.35378508      0.57706597 O
atom_frac       0.19082604      0.22542571      0.59562136 O
  initial_moment -1.0
atom_frac       0.52377670      0.22141111      0.58255188 O
atom_frac       0.85850356      0.19891272      0.58654669 O
  initial_moment -1.0
atom_frac       0.21305240      0.46565719      0.59769721 O
atom_frac       0.54774493      0.46308650      0.58992968 O
atom_frac       0.87976600      0.43445936      0.57777028 O
atom_frac       0.11653497      0.81320834      0.57944099 O
  initial_moment -1.0
atom_frac       0.45052481      0.80937105      0.57422766 O
atom_frac       0.78343223      0.78644840      0.58161841 O
  initial_moment -1.0
atom_frac       0.06213340      0.55918606      0.58144907 O
atom_frac       0.39585464      0.55804631      0.57946167 O
atom_frac       0.72803503      0.54105426      0.58190999 O
atom_frac       0.13661363      0.64246706      0.60564669 O
atom_frac       0.47059710      0.63782446      0.60341444 O
atom_frac       0.80354499      0.61134626      0.58970742 O
atom_frac       0.06260746      0.62249534      0.30945497 O
atom_frac       0.39657735      0.62160898      0.30725080 O
atom_frac       0.73046469      0.60538471      0.30748020 O
atom_frac       0.13681570      0.77715675      0.28629769 O
atom_frac       0.47122805      0.77092867      0.28258069 O
atom_frac       0.80849974      0.74614812      0.30188768 O
atom_frac       0.11937837      0.54637715      0.31086914 O
  initial_moment -1.0
atom_frac       0.45224441      0.53945824      0.31017592 O
atom_frac       0.78145050      0.50256210      0.30648176 O
atom_frac       0.90008254      1.42919730      0.95334223 C
atom_frac       0.87647962      1.40667393      1.03400266 H
atom_frac       0.92474311      1.47469676      1.02568085 H
atom_frac       0.90007535      1.48418392      0.86708646 H
atom_frac       0.89802222      0.23589746      0.96430713 C
atom_frac       0.91909337      0.33819672      0.77562479 H
atom_frac       0.87524263      1.27354416      0.78833755 H
atom_frac       0.87425246      0.20918958      1.04416714 H
atom_frac       0.92233775      0.28153090      1.03860161 H
atom_frac       0.89736088      0.15742606      0.88715957 H
atom_frac       0.89803578      0.31805990      0.86194131 N
atom_frac       0.55312410      0.27756774      0.95036630 C
atom_frac       0.53181799      0.27540919      1.03719864 H
atom_frac       0.54410828      0.26337464      0.82616027 H
atom_frac       0.56051527      0.20965828      0.96847392 H
atom_frac       0.57745254      0.49411506      0.96223695 C
atom_frac       0.60568297      0.39865842      0.90360171 H
atom_frac       0.59411628      0.41093098      1.10115655 H
atom_frac       0.55530351      0.48979191      1.04498376 H
atom_frac       0.56941337      0.48365266      0.83722996 H
atom_frac       0.60181005      0.57895052      0.99250543 H
atom_frac       0.58493265      0.39618591      0.98205588 N
atom_frac       0.24358269      0.48231437     -0.05867197 C
atom_frac       0.26891186      0.50378920     -0.12655072 H
atom_frac       0.22180694      0.45457213     -0.14409078 H
atom_frac       0.24605853      0.56026978      0.02619319 H
atom_frac       0.23332947      0.27589923     -0.06604486 C
atom_frac       0.21249688      0.36595288      0.10326449 H
atom_frac       0.25558469      0.41574689      0.12344893 H
atom_frac       0.25882400      0.29702219     -0.13248345 H
atom_frac       0.21140236      0.24230765     -0.15281042 H
atom_frac       0.22771556      0.21052737      0.01471642 H
atom_frac       0.23599749      0.38544949      0.03327428 N
atom_frac       0.09348672      0.54687015     -0.04839110 C
atom_frac       0.07599045      0.53501796      0.05915203 H
atom_frac       0.07733802      0.50719572     -0.15876699 H
atom_frac       0.11145654      0.50832565     -0.04053958 H
atom_frac       0.09326417     -0.26399882     -0.05789742 C
atom_frac       0.13193920      0.68634429     -0.15680331 H
atom_frac       0.13163799      0.71603239      0.04944107 H
atom_frac       0.07657411     -0.27564870      0.05240602 H
atom_frac       0.07629285     -0.30543327     -0.16552864 H
atom_frac       0.11108237     -0.16968431     -0.06552072 H
atom_frac       0.11556199      0.67594285     -0.05335214 N
atom_frac       0.75811220      0.51142516      0.95855156 C
atom_frac       0.78136103      0.54146045      1.03619812 H
atom_frac       0.73404395      0.49246097      1.03521546 H
atom_frac       0.75449310      0.43151587      0.87530753 H
atom_frac       0.76801144      0.71689721      0.96231873 C
atom_frac       0.74320561      0.57329337      0.77966179 H
atom_frac       0.78657173      0.62233756      0.78744044 H
atom_frac       0.79131058      0.75177802      1.04158071 H
atom_frac       0.74359031      0.69776987      1.03665573 H
atom_frac       0.77225423      0.78035120      0.88055762 H
atom_frac       0.76401341      0.60539680      0.86393637 N
atom_frac       0.42719454      0.54301208      0.94940654 C
atom_frac       0.40989196      0.53226570      1.05752263 H
atom_frac       0.41084432      0.50409602      0.83957934 H
atom_frac       0.44472589      0.50271324      0.95658413 H
atom_frac       0.42819245      0.73384934      0.93894354 C
atom_frac       0.46622703      0.68116830      0.84057280 H
atom_frac       0.46598048      0.71115353      1.04689181 H
atom_frac       0.41144880      0.72310446      1.04904350 H
atom_frac       0.41127269      0.69321026      0.83110602 H
atom_frac       0.44641602      0.82793871      0.93146481 H
atom_frac       0.44988194      0.67180092      0.94404249 N
atom_frac      -0.00128362      0.57154262      0.11154494 Cl
