# 
# This is the geometry file that corresponds to the current relaxation step.
# If you do not want this file to be written, set the "write_restart_geometry" flag to .false.
#  aims_uuid : 73BA7C36-2E33-4A1F-A0B0-15BDC0E5A9BB                                
# 
lattice_vector     11.05031874     -5.91870572      0.18825254
lattice_vector      0.62328584     13.82503697     -1.51550556
lattice_vector      0.29048913     -3.02540955      8.42845021
atom_frac       0.40633568     -0.03270819      0.04864247 C
atom_frac       0.83817633      0.14231599      0.59827000 C
atom_frac       0.64484147      0.48469672      0.04716935 C
atom_frac       0.98668722      0.80781176      0.60244807 C
atom_frac       0.64078909      0.20222959      0.99666511 C
atom_frac       0.17037318      0.33642147      0.97235150 C
atom_frac       0.80775962      1.16402232      1.02791630 C
atom_frac       0.13787084      0.84100919      0.38613746 C
atom_frac       0.34518800      0.50027997      0.94188440 C
atom_frac      -0.01445682      0.17333396      0.37796236 C
atom_frac       0.33035730      0.75619060     -0.03862854 C
atom_frac       0.81626938      0.65070086      0.01618875 C
atom_frac       0.54907735     -0.04474193      0.36029291 C
atom_frac      -0.02332955      0.50063969      0.35637586 C
atom_frac       0.43517468      0.40509317      0.35528323 C
atom_frac       0.01045507      0.49185157      0.64411688 C
atom_frac       0.42081939      0.02970362      0.64334850 C
atom_frac       0.54466612      0.58709561      0.64221656 C
atom_frac       0.57091307      0.07267373      0.44018802 C
atom_frac       0.88029084      0.44020405      0.43331943 C
atom_frac       0.50416742      0.38992826      0.44046413 C
atom_frac       0.89661746      0.43712688      0.58221105 C
atom_frac       0.50750741      0.11244442      0.58851283 C
atom_frac       0.55776327      0.48310747      0.58860466 C
atom_frac       0.40289869      0.91296446      0.56608938 C
atom_frac       0.10631801      0.55347234      0.56808909 C
atom_frac       0.47504979      0.60089340      0.55660627 C
atom_frac       0.08985402      0.55492664      0.41901112 C
atom_frac       0.46368088      0.87383891      0.41801834 C
atom_frac       0.42144702      0.50906311      0.41094269 C
atom_frac       0.63436598     -0.08884918      0.18532926 Cl
atom_frac      -0.04433492      0.50794455      0.17691020 Cl
atom_frac       0.36617926      0.29254849      0.17463494 Cl
atom_frac       0.03264708      0.48191298      0.82066238 Cl
atom_frac       0.32622838      0.07180518      0.80692691 Cl
atom_frac       0.61651757      0.70130380      0.81956869 Cl
atom_frac       0.64512310      0.31413528      0.53035825 Ti
atom_frac       0.33357246      0.67495705      0.47660259 Ti
atom_frac       0.23706602     -0.14882697     -0.02203207 H
atom_frac      -0.08377085      0.02923796      0.43593297 H
atom_frac       0.77092162      0.47748108     -0.14456296 H
atom_frac       0.04451969      0.94480263      0.52847622 H
atom_frac       0.74434568      0.28617766      1.20852555 H
atom_frac       0.21352969      0.51036225      1.12469752 H
atom_frac       0.32991839     -0.15644515     -0.18026558 H
atom_frac      -0.18156556      0.04186382      0.34866598 H
atom_frac       0.68128677      0.52851843     -0.15656573 H
atom_frac       0.14529979      0.94908397      0.63249191 H
atom_frac       0.65984407      0.15344352      1.17920418 H
atom_frac       0.30006219      0.46135169      1.15048297 H
atom_frac       0.49413099     -0.03179619      0.00609459 H
atom_frac       0.81293936      0.20863805      0.60053104 H
atom_frac       0.59689295      0.54032500      0.11880089 H
atom_frac       1.02250742      0.75371833      0.61653423 H
atom_frac       0.60339045      0.11671007      0.89819422 H
atom_frac       0.21748716      0.27906899      0.90961386 H
atom_frac       0.77479678      1.07744930      0.93013877 H
atom_frac       0.17049857      0.78347174      0.39698944 H
atom_frac       0.39395425      0.44439793      0.87929663 H
atom_frac      -0.04065737      0.24011687      0.38461432 H
atom_frac       0.41824515      0.75755045     -0.08152794 H
atom_frac       0.77063462      0.70878377      0.08554678 H
atom_frac       0.39504325     -0.02226424      0.17772290 H
atom_frac       0.90743572      0.18053485      0.68715534 H
atom_frac       0.69169890      0.47983756      0.13191650 H
atom_frac       0.91719214      0.75443073      0.51086773 H
atom_frac       0.69794877      0.26300212      0.94064567 H
atom_frac       0.12221675      0.33465825      0.88224328 H
atom_frac       0.87053536      1.22525158      0.97586308 H
atom_frac       0.07173269      0.79207335      0.28997516 H
atom_frac       0.30167063      0.50166116      0.84976844 H
atom_frac       0.05908898      0.21228066      0.46041203 H
atom_frac       0.31779787      0.76817111      0.09111764 H
atom_frac       0.86755201      0.65067182      0.10070565 H
atom_frac       0.39408497      0.03594233      0.03603233 H
atom_frac       0.76216225      0.07455740      0.62459676 H
atom_frac       0.58327937      0.39873096     -0.02635919 H
atom_frac       0.95059295      0.85375280      0.71940003 H
atom_frac       0.57062036      0.22971713      1.06872942 H
atom_frac       0.10944446      0.30942414      1.06499174 H
atom_frac       0.85137254      1.16301067      1.12013769 H
atom_frac       0.21003011      0.91089789      0.35890186 H
atom_frac       0.40537105      0.58727828      1.01445385 H
atom_frac       0.01231328      0.12814336      0.25247711 H
atom_frac       0.26497631      0.67587527     -0.11784925 H
atom_frac       0.87466456      0.67920467     -0.07703570 H
atom_frac       0.32043222     -0.14650225     -0.05494661 N
atom_frac      -0.11434589      0.08869085      0.43232953 N
atom_frac       0.72928529      0.53316261     -0.06685696 N
atom_frac       0.08148252      0.89355162      0.54419157 N
atom_frac       0.71041448      0.20114335      1.10901139 N
atom_frac       0.25615982      0.45490996      1.05556333 N
atom_frac       0.64797166      0.15164367      0.38508905 O
atom_frac       0.77148593      0.38417796      0.37604086 O
atom_frac       0.52459158      0.29565731      0.39211668 O
atom_frac       0.80105634      0.38261772      0.65468362 O
atom_frac       0.53548838      0.22450342      0.66384387 O
atom_frac       0.61862251      0.46321733      0.66900919 O
atom_frac       0.32809524      0.83082392      0.62063121 O
atom_frac       0.21570411      0.61042340      0.62370121 O
atom_frac       0.45461438      0.69623109      0.60071823 O
atom_frac       0.18754489      0.61015572      0.34839202 O
atom_frac       0.43383178      0.76017062      0.34405556 O
atom_frac       0.35860029      0.53074468      0.33398725 O
# 
# What follows is the current estimated Hessian matrix constructed by the BFGS algorithm.
# This is NOT the true Hessian matrix of the system.
# If you do not want this information here, switch it off using the "hessian_to_restart_geometry" keyword.
# 
trust_radius             0.8000000119
hessian_file
