lattice_vector     11.05031874     -5.91870572      0.18825254
lattice_vector      0.62328584     13.82503697     -1.51550556
lattice_vector      0.29048913     -3.02540955      8.42845021
atom_frac       0.40204328     -0.01260159      0.08907119 C
atom_frac       0.84077426      0.11774216      0.51798581 C
atom_frac       0.65723081      0.48622575      0.04103314 C
atom_frac       0.92311255      0.76800065      0.52955002 C
atom_frac       0.63939671      0.19885523      0.98942480 C
atom_frac       0.18236778      0.35657923      0.98318653 C
atom_frac       0.79171338      1.13353492      0.99347869 C
atom_frac       0.13169845      0.84330753      0.43549998 C
atom_frac       0.35616786      0.52992635      0.97949250 C
atom_frac       0.03698650      0.20550942      0.39872485 C
atom_frac       0.30757329      0.77569081     -0.00337817 C
atom_frac       0.83529900      0.63652291     -0.01778725 C
atom_frac       0.54007211     -0.05186015      0.36159097 C
atom_frac      -0.01810444      0.49888558      0.36131179 C
atom_frac       0.43382753      0.40807495      0.36274245 C
atom_frac       0.00656995      0.48271204      0.64724401 C
atom_frac       0.42291983      0.03399534      0.65269645 C
atom_frac       0.55216335      0.58647171      0.64551383 C
atom_frac       0.56234937      0.06557393      0.43295142 C
atom_frac       0.88439554      0.43009282      0.42588766 C
atom_frac       0.50821129      0.39099183      0.43622840 C
atom_frac       0.89572101      0.42399793      0.57482340 C
atom_frac       0.50518246      0.11119633      0.58476117 C
atom_frac       0.56689140      0.48250135      0.58203506 C
atom_frac       0.40501626      0.91746491      0.58431603 C
atom_frac       0.10314215      0.55335022      0.58430060 C
atom_frac       0.47581967      0.60156665      0.57286549 C
atom_frac       0.09149127      0.55851312      0.43583036 C
atom_frac       0.46059720      0.87286037      0.43357524 C
atom_frac       0.41819632      0.51165687      0.42861517 C
atom_frac       0.61485075     -0.10461871      0.18008392 Cl
atom_frac      -0.03294102      0.50976161      0.18177079 Cl
atom_frac       0.35975040      0.29821343      0.18394649 Cl
atom_frac       0.02409607      0.46661006      0.82051416 Cl
atom_frac       0.33692049      0.08335674      0.82319543 Cl
atom_frac       0.63030912      0.69875215      0.81955439 Cl
atom_frac       0.64648017      0.30582438      0.51182366 Ti
initial_moment 0.0
atom_frac       0.33177267      0.68161145      0.51031692 Ti
initial_moment 0.0
atom_frac       0.23070339     -0.11483007      0.01548212 H
atom_frac      -0.03169374      0.04591939      0.42000944 H
atom_frac       0.77288819      0.45946996     -0.16303795 H
atom_frac       0.01596534      0.92779067      0.51116284 H
atom_frac       0.75278254      0.27108123      1.18629448 H
atom_frac       0.21698818      0.52669951      1.15015781 H
atom_frac       0.32426863     -0.13066190     -0.14298603 H
atom_frac      -0.09888635      0.04851149      0.28102844 H
atom_frac       0.69095740      0.51861941     -0.17355306 H
atom_frac       0.06104726      0.91638085      0.66290141 H
atom_frac       0.65611196      0.14358222      1.16494822 H
atom_frac       0.30243776      0.47692216      1.17582114 H
atom_frac       0.48659720     -0.02105543      0.05152610 H
atom_frac       0.80216375      0.16374280      0.48819663 H
atom_frac       0.61927006      0.55059535      0.11455625 H
atom_frac       0.94024290      0.70809434      0.55923067 H
atom_frac       0.59107286      0.11436876      0.89560765 H
atom_frac       0.23308313      0.30264996      0.92068770 H
atom_frac       0.74459910      1.05052688      0.89597569 H
atom_frac       0.15131603      0.78399294      0.46324914 H
atom_frac       0.40624159      0.47596916      0.91153548 H
atom_frac       0.00537269      0.25840961      0.37347439 H
atom_frac       0.39050441      0.76630817     -0.05382841 H
atom_frac       0.79758907      0.70156410      0.05092396 H
atom_frac       0.38421980     -0.00265043      0.21784664 H
atom_frac       0.87914290      0.16971753      0.64077069 H
atom_frac       0.70357685      0.47824227      0.12287735 H
atom_frac       0.89371293      0.72579786      0.40200649 H
atom_frac       0.69904347      0.25432363      0.92658746 H
atom_frac       0.13851336      0.35848630      0.89217623 H
atom_frac       0.85972991      1.18931067      0.93744689 H
atom_frac       0.10363787      0.80257869      0.30767481 H
atom_frac       0.31632362      0.53863709      0.89140489 H
atom_frac       0.07463515      0.25345309      0.52211257 H
atom_frac       0.29856820      0.78904434      0.12667531 H
atom_frac       0.88906891      0.63669948      0.06369955 H
atom_frac       0.40232880      0.06105992      0.07491875 H
atom_frac       0.77395203      0.03391717      0.51137185 H
atom_frac       0.58705618      0.40332955     -0.02226601 H
atom_frac       0.85593567      0.79530416      0.61266019 H
atom_frac       0.57871421      0.23689027      1.07207573 H
atom_frac       0.11719467      0.32267692      1.06687263 H
atom_frac       0.83178866      1.11926467      1.07489130 H
atom_frac       0.20881417      0.92381798      0.45668432 H
atom_frac       0.41367292      0.61438515      1.06289779 H
atom_frac       0.10405113      0.18378873      0.30790545 H
atom_frac       0.23557689      0.69990976     -0.07720789 H
atom_frac       0.88998610      0.65510637     -0.12054809 H
atom_frac       0.31099518     -0.12071531     -0.01745309 N
atom_frac      -0.06347741      0.09796679      0.39665690 N
atom_frac       0.73925169      0.52230331     -0.08498537 N
atom_frac       0.03378118      0.87061116      0.54283622 N
atom_frac       0.70868833      0.18745104      1.09031561 N
atom_frac       0.26294649      0.47463622      1.08001274 N
atom_frac       0.63545731      0.14002156      0.36720440 O
atom_frac       0.77897203      0.37009028      0.35776254 O
atom_frac       0.52853633      0.29587745      0.37882878 O
initial_moment -1.0
atom_frac       0.79896586      0.36433249      0.63868544 O
initial_moment 1.0
atom_frac       0.53475875      0.22368246      0.65231030 O
atom_frac       0.63329766      0.46132283      0.65176587 O
atom_frac       0.33468676      0.84022786      0.65009377 O
initial_moment 2.0
atom_frac       0.20878798      0.61577390      0.65186888 O
atom_frac       0.45237167      0.69623767      0.62831083 O
atom_frac       0.18964487      0.62192762      0.37679896 O
atom_frac       0.43225418      0.75941291      0.36981968 O
atom_frac       0.34914836      0.53424653      0.36349142 O
