# 
# This is the geometry file that corresponds to the current relaxation step.
# If you do not want this file to be written, set the "write_restart_geometry" flag to .false.
#  aims_uuid : 4457035D-8F3B-48F0-AD87-C55AA5979077                                
# 
lattice_vector     11.44057932     -6.28898809     -0.31059128
lattice_vector      0.32476398     13.52027157     -0.31243895
lattice_vector     -0.31361580     -0.56856663      7.98502294
atom_frac       0.18175756     -0.11403933      0.35376528 C
atom_frac       0.63611781      0.36070058      0.04988969 C
atom_frac       0.73239882      0.64860637      0.31626079 C
atom_frac       1.22979748      0.72050829      0.97525430 C
atom_frac       0.90434383      0.18519332      0.38407393 C
atom_frac       0.37716221      0.25030960      0.75326998 C
atom_frac       0.81820033      1.11424082      0.64776177 C
atom_frac       0.36386968      0.63922955      0.94971327 C
atom_frac       0.26728374      0.35102287      0.68297226 C
atom_frac      -0.22961290      0.27963611      0.02458914 C
atom_frac       0.09524225      0.81477044      0.61711102 C
atom_frac       0.62249969      0.74929265      0.24587217 C
atom_frac       0.53867869     -0.00805480      0.34489447 C
atom_frac      -0.02181507      0.53705258      0.35102799 C
atom_frac       0.43176424      0.42543379      0.36519069 C
atom_frac       0.02189508      0.46311265      0.64867050 C
atom_frac       0.46167297      0.00812454      0.65485478 C
atom_frac       0.56822529      0.57455677      0.63448367 C
atom_frac       0.57951133      0.09846284      0.43436743 C
atom_frac       0.88541295      0.46549963      0.43481057 C
atom_frac       0.51103934      0.40242111      0.45157010 C
atom_frac       0.90795574      0.42769022      0.58782821 C
atom_frac       0.54137665      0.10658695      0.59586864 C
atom_frac       0.58060661      0.47838562      0.59139766 C
atom_frac       0.42076392      0.90161735      0.56532845 C
atom_frac       0.11466641      0.53464901      0.56487000 C
atom_frac       0.48895464      0.59757523      0.54812102 C
atom_frac       0.09212266      0.57246415      0.41186056 C
atom_frac       0.45891623      0.89348543      0.40383877 C
atom_frac       0.41937808      0.52160505      0.40830411 C
atom_frac       0.58496454     -0.01590357      0.14404443 Cl
atom_frac      -0.04541933      0.58162657      0.16465097 Cl
atom_frac       0.33278804      0.32147134      0.21181681 Cl
atom_frac       0.04551282      0.41857556      0.83507307 Cl
atom_frac       0.41543716      0.01595295      0.85575035 Cl
atom_frac       0.66728289      0.67856388      0.78773903 Cl
atom_frac       0.66383846      0.32587353      0.53762988 V
atom_frac       0.33624404      0.67421471      0.46202724 V
atom_frac       0.25141401     -0.04864973      0.59524525 H
atom_frac      -0.36543800      0.23064757      0.17416485 H
atom_frac       0.79385169      0.79591193      0.20979062 H
atom_frac       0.36554075      0.76935593      0.82551877 H
atom_frac       0.74937482      0.04727925      0.40637789 H
atom_frac       0.20559730      0.20329280      0.78835655 H
atom_frac       0.13750986     -0.02951930      0.54424585 H
atom_frac      -0.40364814      0.19950006     -0.03478220 H
atom_frac       0.70238101      0.68655698      0.08041585 H
atom_frac       0.40384354      0.80048793      1.03444003 H
atom_frac       0.86446486      0.03040422      0.45889230 H
atom_frac       0.29672424      0.31246623      0.91856904 H
atom_frac       0.09888748     -0.13938168      0.28517488 H
atom_frac       0.65012546      0.38587860     -0.07607738 H
atom_frac       0.65122166      0.57209605      0.31287388 H
atom_frac       1.20845935      0.68925733      1.09652037 H
atom_frac       0.98668606      0.23246332      0.45793512 H
atom_frac       0.45841697      0.32715033      0.77111535 H
atom_frac       0.90122615      1.14104069      0.71688620 H
atom_frac       0.34988593      0.61405265      1.07568318 H
atom_frac       0.34849405      0.42754004      0.68676951 H
atom_frac      -0.20824297      0.31089220     -0.09666940 H
atom_frac       0.01256504      0.76897120      0.54369646 H
atom_frac       0.54116973      0.67252161      0.22849128 H
atom_frac       0.20381456     -0.18265775      0.34195464 H
atom_frac       0.69798244      0.42547481      0.14318261 H
atom_frac       0.75398935      0.69180013      0.44371199 H
atom_frac       1.17059261      0.65918297      0.87576904 H
atom_frac       0.85966470      0.23542753      0.37575211 H
atom_frac       0.36415949      0.21558972      0.62182265 H
atom_frac       0.79479518      1.18195812      0.65834621 H
atom_frac       0.30192596      0.57448849      0.85646005 H
atom_frac       0.24582553      0.30807928      0.55536941 H
atom_frac      -0.17049052      0.34099914      0.12410987 H
atom_frac       0.13842826      0.76310215      0.62390661 H
atom_frac       0.63580311      0.78423600      0.37724402 H
atom_frac       0.24876025     -0.03956067      0.30886791 H
atom_frac       0.54912785      0.34041183      0.08358497 H
atom_frac       0.80062391      0.62961720      0.27468565 H
atom_frac       1.22687167      0.79951115      0.97373405 H
atom_frac       0.91810678      0.15578297      0.25959022 H
atom_frac       0.37837793      0.19098595      0.83442407 H
atom_frac       0.75195015      1.03950118      0.69308915 H
atom_frac       0.45081498      0.65941916      0.91590527 H
atom_frac       0.19903188      0.36996528      0.72456327 H
atom_frac      -0.22658691      0.20068572      0.02620401 H
atom_frac       0.08245034      0.84414880      0.74223540 H
atom_frac       0.62120610      0.80849910      0.16454907 H
atom_frac       0.17057339     -0.08658367      0.53352384 N
atom_frac      -0.34789623      0.25984281      0.05669725 N
atom_frac       0.71767513      0.72256371      0.20357158 N
atom_frac       0.34802047      0.74017114      0.94299047 N
atom_frac       0.83012242      0.08646468      0.46840855 N
atom_frac       0.28177848      0.27677055      0.79529795 N
atom_frac       0.65433100      0.19217366      0.37843331 O
atom_frac       0.77751895      0.42588822      0.38577505 O
atom_frac       0.52840961      0.31461927      0.41110326 O
atom_frac       0.81791081      0.35985271      0.65564111 O
atom_frac       0.58518451      0.20731882      0.68351677 O
atom_frac       0.65411361      0.45317986      0.66866351 O
atom_frac       0.34579796      0.80794519      0.62120367 O
atom_frac       0.22255744      0.57424824      0.61390446 O
atom_frac       0.47164130      0.68541057      0.58856730 O
atom_frac       0.18217618      0.64031935      0.34405823 O
atom_frac       0.41506147      0.79275772      0.31616979 O
atom_frac       0.34590662      0.54685387      0.33102165 O
# 
# What follows is the current estimated Hessian matrix constructed by the BFGS algorithm.
# This is NOT the true Hessian matrix of the system.
# If you do not want this information here, switch it off using the "hessian_to_restart_geometry" keyword.
# 
trust_radius             0.8000000119
hessian_file
