lattice_vector     11.44057932     -6.28898809     -0.31059128
lattice_vector      0.32476398     13.52027157     -0.31243895
lattice_vector     -0.31361580     -0.56856663      7.98502294
atom_frac       0.18107637     -0.07392265      0.33371355 C
atom_frac       0.63961949      0.35720809      0.04807025 C
atom_frac       0.72583250      0.64120841      0.31599928 C
atom_frac       1.22479627      0.72326800      0.97584799 C
atom_frac       0.90507943      0.17679785      0.42316542 C
atom_frac       0.37906436      0.25080826      0.74627214 C
atom_frac       0.81962643      1.07476085      0.66694229 C
atom_frac       0.36019766      0.64262328      0.95182265 C
atom_frac       0.27391108      0.35856813      0.68373329 C
atom_frac      -0.22491478      0.27663607      0.02413054 C
atom_frac       0.09541902      0.82344883      0.57694334 C
atom_frac       0.62053622      0.74881366      0.25325407 C
atom_frac       0.53885737     -0.00811084      0.34518192 C
atom_frac      -0.02192443      0.53851325      0.35325013 C
atom_frac       0.43201066      0.42552803      0.36539783 C
atom_frac       0.02181959      0.46142330      0.64672676 C
atom_frac       0.46108920      0.00793573      0.65471337 C
atom_frac       0.56784086      0.57423670      0.63445424 C
atom_frac       0.58033048      0.09830431      0.43472269 C
atom_frac       0.88502070      0.46591264      0.43556884 C
atom_frac       0.51084939      0.40192891      0.45211041 C
atom_frac       0.90754465      0.42655303      0.58742098 C
atom_frac       0.54144474      0.10623191      0.59603038 C
atom_frac       0.58048161      0.47799445      0.59225327 C
atom_frac       0.41962368      0.90151994      0.56517665 C
atom_frac       0.11487234      0.53399318      0.56437530 C
atom_frac       0.48900875      0.59784088      0.54774668 C
atom_frac       0.09235104      0.57335689      0.41252680 C
atom_frac       0.45850105      0.89359156      0.40386620 C
atom_frac       0.41936767      0.52177085      0.40761441 C
atom_frac       0.58618543     -0.01696200      0.14386830 Cl
atom_frac      -0.04570557      0.58500595      0.16686292 Cl
atom_frac       0.33146701      0.31991382      0.21214701 Cl
atom_frac       0.04560874      0.41497276      0.83314843 Cl
atom_frac       0.41374785      0.01679083      0.85602096 Cl
atom_frac       0.66840219      0.67985689      0.78767908 Cl
atom_frac       0.66398973      0.32518837      0.53825972 V
initial_moment 1.0
atom_frac       0.33590867      0.67463028      0.46162154 V
initial_moment 1.0
atom_frac       0.20795210     -0.00926414      0.58136289 H
atom_frac      -0.36043550      0.22859693      0.17545031 H
atom_frac       0.79103913      0.79046700      0.21452825 H
atom_frac       0.36029381      0.77125644      0.82446895 H
atom_frac       0.79295445      0.00947524      0.41960698 H
atom_frac       0.20835230      0.20886513      0.78398877 H
atom_frac       0.07547322     -0.03990051      0.50102637 H
atom_frac      -0.39967518      0.19558266     -0.03317951 H
atom_frac       0.69685980      0.68405917      0.08350127 H
atom_frac       0.39956068      0.80426523      1.03309279 H
atom_frac       0.92557920      0.04075782      0.50035390 H
atom_frac       0.30222811      0.31501156      0.91592575 H
atom_frac       0.11073057     -0.14073510      0.25231634 H
atom_frac       0.65309816      0.38151823     -0.07834737 H
atom_frac       0.64325472      0.56599536      0.31030480 H
atom_frac       1.20529290      0.69606976      1.09997122 H
atom_frac       0.97376186      0.24212161      0.50864881 H
atom_frac       0.46178285      0.32591046      0.76872347 H
atom_frac       0.89002119      1.14156010      0.74830044 H
atom_frac       0.34673095      0.61831104      1.07823871 H
atom_frac       0.35655194      0.43375106      0.68990774 H
atom_frac      -0.20539932      0.30383945     -0.09998754 H
atom_frac       0.02665367      0.75840398      0.49121405 H
atom_frac       0.53776180      0.67374796      0.23127606 H
atom_frac       0.25371706     -0.09225018      0.34326851 H
atom_frac       0.70127836      0.42273645      0.14075660 H
atom_frac       0.74844996      0.68226527      0.44467006 H
atom_frac       1.16501748      0.65909066      0.87961061 H
atom_frac       0.83391955      0.19697310      0.40636285 H
atom_frac       0.36686344      0.22017858      0.61300768 H
atom_frac       0.74714204      1.09329300      0.65705691 H
atom_frac       0.29851465      0.57710466      0.85915044 H
atom_frac       0.25145447      0.31781553      0.55489396 H
atom_frac      -0.16516793      0.34082467      0.12038327 H
atom_frac       0.16642851      0.80300610      0.59340891 H
atom_frac       0.63303875      0.77969918      0.38644300 H
atom_frac       0.20753508      0.00671274      0.28723700 H
atom_frac       0.55250798      0.33631541      0.08206597 H
atom_frac       0.79250808      0.62076338      0.27155291 H
atom_frac       1.22107304      0.80141895      0.96766835 H
atom_frac       0.93889796      0.16664175      0.30348898 H
atom_frac       0.37720585      0.18807144      0.82290125 H
atom_frac       0.79292433      0.99416281      0.71368187 H
atom_frac       0.44729352      0.66348582      0.91778110 H
atom_frac       0.20722183      0.37898826      0.72819079 H
atom_frac      -0.22116088      0.19850200      0.03233768 H
atom_frac       0.06163937      0.83341264      0.69674455 H
atom_frac       0.62229898      0.81142023      0.17642561 H
atom_frac       0.13980051     -0.06871058      0.50360754 N
atom_frac      -0.34338487      0.25684657      0.05693300 N
atom_frac       0.71356200      0.71893273      0.20748431 N
atom_frac       0.34324502      0.74301123      0.94299174 N
atom_frac       0.86098987      0.06922311      0.49719263 N
atom_frac       0.28586297      0.28047720      0.79180344 N
atom_frac       0.65530833      0.19244084      0.37904121 O
atom_frac       0.77710125      0.42704768      0.38652798 O
atom_frac       0.52775450      0.31381521      0.41122689 O
initial_moment 2.0
atom_frac       0.81789092      0.35872778      0.65578761 O
initial_moment 1.0
atom_frac       0.58454556      0.20729736      0.68388311 O
atom_frac       0.65396522      0.45296980      0.67021944 O
atom_frac       0.34464468      0.80738637      0.62086548 O
initial_moment -1.0
atom_frac       0.22279141      0.57282034      0.61337798 O
atom_frac       0.47212363      0.68596441      0.58862995 O
atom_frac       0.18200936      0.64114758      0.34413235 O
atom_frac       0.41539022      0.79252464      0.31601086 O
atom_frac       0.34589155      0.54681403      0.32965980 O
