# 
# This is the geometry file that corresponds to the current relaxation step.
# If you do not want this file to be written, set the "write_restart_geometry" flag to .false.
#  aims_uuid : 79DD8FFD-F9C4-4A82-A5DB-0E2284CE9942                                
# 
lattice_vector     11.44057932     -6.28898809     -0.31059128
lattice_vector      0.32476398     13.52027157     -0.31243895
lattice_vector     -0.31361580     -0.56856663      7.98502294
atom_frac       0.16785044     -0.11718765      0.40899885 C
atom_frac       0.63501406      0.36789613      0.03264614 C
atom_frac       0.74340218      0.65361066      0.30959074 C
atom_frac       1.24752882      0.72405114      0.97509343 C
atom_frac       0.89259337      0.17612876      0.40760286 C
atom_frac       0.36328969      0.24018284      0.71987037 C
atom_frac       0.79385880      1.07711500      0.64491898 C
atom_frac       0.36546727      0.62438074      0.95177383 C
atom_frac       0.24025104      0.32439582      0.63569647 C
atom_frac      -0.23073488      0.28674943      0.01202172 C
atom_frac       0.06212536      0.79212949      0.64907369 C
atom_frac       0.64620172      0.76893948      0.25723273 C
atom_frac       0.53953001     -0.00431116      0.32916167 C
atom_frac      -0.01437001      0.54170432      0.34298183 C
atom_frac       0.43443974      0.43465617      0.35516403 C
atom_frac       0.02451119      0.46834600      0.63878095 C
atom_frac       0.46777161      0.01459406      0.64439756 C
atom_frac       0.57076436      0.57961437      0.63205317 C
atom_frac       0.57731021      0.10243783      0.41509550 C
atom_frac       0.89067380      0.46899646      0.42279380 C
atom_frac       0.51385000      0.41060584      0.43833045 C
atom_frac       0.91170642      0.42997834      0.57145504 C
atom_frac       0.54207468      0.11243684      0.57971882 C
atom_frac       0.58450695      0.48516975      0.58108425 C
atom_frac       0.43000409      0.90857916      0.55618506 C
atom_frac       0.11878151      0.54184920      0.55907543 C
atom_frac       0.48901319      0.60181506      0.55050782 C
atom_frac       0.09848504      0.57686653      0.40822522 C
atom_frac       0.46500060      0.89786886      0.39539078 C
atom_frac       0.42197738      0.52949753      0.40812310 C
atom_frac       0.58478675     -0.01483636      0.12944591 Cl
atom_frac      -0.03483868      0.58599929      0.15437033 Cl
atom_frac       0.33966961      0.33734996      0.19325725 Cl
atom_frac       0.04724520      0.42420369      0.82671545 Cl
atom_frac       0.42357257      0.02256819      0.84556424 Cl
atom_frac       0.66924858      0.68173075      0.78739900 Cl
atom_frac       0.66803626      0.33316578      0.51523595 V
atom_frac       0.33599513      0.67980952      0.46239008 V
atom_frac       0.23438668     -0.16648030      0.60430576 H
atom_frac      -0.36996845      0.23536711      0.15404627 H
atom_frac       0.80941481      0.79856474      0.19534024 H
atom_frac       0.38828304      0.76326113      0.83702969 H
atom_frac       0.94691412      0.22090156      0.65813283 H
atom_frac       0.18474084      0.17158005      0.73017919 H
atom_frac       0.20935266     -0.05832403      0.65897512 H
atom_frac      -0.40380622      0.20774853     -0.05632173 H
atom_frac       0.70543031      0.69167879      0.07870939 H
atom_frac       0.41838875      0.78774823      1.04696374 H
atom_frac       0.83743181      0.24634158      0.60853267 H
atom_frac       0.26097377      0.28250030      0.87053075 H
atom_frac       0.11518886     -0.07450827      0.39582249 H
atom_frac       0.65133584      0.39464719     -0.09222114 H
atom_frac       0.65970870      0.58066694      0.31121515 H
atom_frac       1.21953301      0.69121441      1.09378754 H
atom_frac       0.81119485      0.14632168      0.33264341 H
atom_frac       0.43844813      0.32160731      0.74892183 H
atom_frac       0.71309516      1.03684955      0.56604709 H
atom_frac       0.34423835      0.59600343      1.07488826 H
atom_frac       0.31609286      0.40606903      0.65009446 H
atom_frac      -0.20741177      0.31780399     -0.10901072 H
atom_frac       0.00789284      0.83371821      0.64374544 H
atom_frac       0.56118364      0.69699243      0.25099551 H
atom_frac       0.13024398     -0.19812935      0.33240202 H
atom_frac       0.69564057      0.43124887      0.12880399 H
atom_frac       0.77160961      0.69711220      0.43642305 H
atom_frac       1.18856999      0.66849015      0.87061282 H
atom_frac       0.92962027      0.11874353      0.38554329 H
atom_frac       0.36128821      0.20974190      0.58868523 H
atom_frac       0.83758778      1.02497262      0.63895829 H
atom_frac       0.30337159      0.56567639      0.85256934 H
atom_frac       0.22851692      0.28578987      0.50653518 H
atom_frac      -0.17397258      0.34786387      0.11364118 H
atom_frac       0.02281111      0.71137438      0.57152945 H
atom_frac       0.67106200      0.80724673      0.38699453 H
atom_frac       0.25495972     -0.06512612      0.37428015 H
atom_frac       0.54724269      0.34736562      0.06244884 H
atom_frac       0.80605328      0.62862787      0.26109139 H
atom_frac       1.25523945      0.80777594      0.97787929 H
atom_frac       0.95298039      0.25889887      0.37723804 H
atom_frac       0.36656762      0.18155861      0.80073401 H
atom_frac       0.77592741      1.09183510      0.77413230 H
atom_frac       0.45170957      0.63752320      0.92493470 H
atom_frac       0.16483174      0.33374610      0.66938397 H
atom_frac      -0.22765974      0.20801839      0.01664245 H
atom_frac       0.07571414      0.78046480      0.77862534 H
atom_frac       0.64563257      0.82913676      0.17719588 H
atom_frac       0.17499958     -0.13508674      0.58720144 N
atom_frac      -0.34980879      0.26654770      0.03828667 N
atom_frac       0.73055922      0.73038640      0.20033724 N
atom_frac       0.36280245      0.73241196      0.94994781 N
atom_frac       0.87008363      0.18548407      0.58648890 N
atom_frac       0.25745105      0.25178793      0.74760782 N
atom_frac       0.64814158      0.19538864      0.35558922 O
atom_frac       0.78226033      0.42846340      0.36506671 O
atom_frac       0.52937902      0.32291743      0.39492968 O
atom_frac       0.81976871      0.35136749      0.63261907 O
atom_frac       0.58498087      0.21335115      0.66373853 O
atom_frac       0.65844711      0.45897077      0.65323775 O
atom_frac       0.35501939      0.81316540      0.61316583 O
atom_frac       0.22855734      0.58630012      0.61444047 O
atom_frac       0.46677911      0.68637567      0.59226579 O
atom_frac       0.19322134      0.64714824      0.34293505 O
atom_frac       0.42186431      0.79467944      0.31563619 O
atom_frac       0.35076316      0.56019876      0.33624269 O
# 
# What follows is the current estimated Hessian matrix constructed by the BFGS algorithm.
# This is NOT the true Hessian matrix of the system.
# If you do not want this information here, switch it off using the "hessian_to_restart_geometry" keyword.
# 
trust_radius             0.0314722521
hessian_file
