lattice_vector     11.44057932     -6.28898809     -0.31059128
lattice_vector      0.32476398     13.52027157     -0.31243895
lattice_vector     -0.31361580     -0.56856663      7.98502294
atom_frac       0.18409544     -0.09986393      0.37369848 C
atom_frac       0.63287989      0.36014052      0.03917238 C
atom_frac       0.73677712      0.64764967      0.31262941 C
atom_frac       1.23824547      0.72108880      0.97759226 C
atom_frac       0.88784990      0.17067138      0.41248620 C
atom_frac       0.36940475      0.24379376      0.73344047 C
atom_frac       0.79326596      1.07469526      0.65403938 C
atom_frac       0.36539425      0.63163474      0.95263073 C
atom_frac       0.24864989      0.32973475      0.64726615 C
atom_frac      -0.22971831      0.28291715      0.01878689 C
atom_frac       0.08911211      0.81007331      0.62144402 C
atom_frac       0.64039009      0.76074343      0.24208962 C
atom_frac       0.53615206     -0.00833318      0.33291097 C
atom_frac      -0.01621043      0.53899905      0.34927914 C
atom_frac       0.43336030      0.43057882      0.35762661 C
atom_frac       0.02341633      0.46351724      0.64190733 C
atom_frac       0.46421745      0.00963558      0.64823443 C
atom_frac       0.56967026      0.57553266      0.63369620 C
atom_frac       0.57459789      0.09821141      0.41986750 C
atom_frac       0.88907881      0.46544929      0.42853249 C
atom_frac       0.51201526      0.40588122      0.44193258 C
atom_frac       0.91045480      0.42550868      0.57569334 C
atom_frac       0.53913323      0.10788326      0.58427137 C
atom_frac       0.58255990      0.48043748      0.58450604 C
atom_frac       0.42698435      0.90340963      0.56025926 C
atom_frac       0.11750848      0.53750439      0.56245823 C
atom_frac       0.48889387      0.59847053      0.55111064 C
atom_frac       0.09678667      0.57368693      0.41295701 C
atom_frac       0.46163556      0.89377346      0.39844321 C
atom_frac       0.42151519      0.52603735      0.40891208 C
atom_frac       0.58222141     -0.01829191      0.13359921 Cl
atom_frac      -0.03742720      0.58572728      0.16325187 Cl
atom_frac       0.33707332      0.33186734      0.19798045 Cl
atom_frac       0.04662742      0.41838242      0.82892554 Cl
atom_frac       0.42000475      0.01693040      0.84992800 Cl
atom_frac       0.66841517      0.67753382      0.78866131 Cl
atom_frac       0.66634081      0.32891824      0.52081696 V
initial_moment 2.0
atom_frac       0.33476351      0.67615232      0.46621237 V
initial_moment -2.0
atom_frac       0.25262716     -0.05926511      0.61801632 H
atom_frac      -0.36934164      0.22862170      0.16045064 H
atom_frac       0.80112121      0.78336843      0.17801951 H
atom_frac       0.37461371      0.76413918      0.82958239 H
atom_frac       0.94603420      0.21849070      0.66089630 H
atom_frac       0.19142535      0.17534228      0.73589966 H
atom_frac       0.14878028     -0.02283081      0.58648290 H
atom_frac      -0.40286703      0.20093470     -0.05033688 H
atom_frac       0.69480756      0.67311263      0.07390329 H
atom_frac       0.41207891      0.79499189      1.03722019 H
atom_frac       0.83599887      0.24432081      0.61464269 H
atom_frac       0.26520054      0.28503652      0.88178358 H
atom_frac       0.10273179     -0.11611747      0.30862387 H
atom_frac       0.64901142      0.38731046     -0.08545760 H
atom_frac       0.65322305      0.57590877      0.32138718 H
atom_frac       1.21563681      0.69048871      1.09901523 H
atom_frac       0.80536108      0.13907244      0.33977060 H
atom_frac       0.44491707      0.32464721      0.76555034 H
atom_frac       0.70783880      1.03813421      0.58745484 H
atom_frac       0.34860640      0.60591909      1.07797967 H
atom_frac       0.32540654      0.41069429      0.66265254 H
atom_frac      -0.20687271      0.31390127     -0.10234915 H
atom_frac       0.00685565      0.77672984      0.54768628 H
atom_frac       0.55540629      0.69009463      0.24658089 H
atom_frac       0.20269540     -0.16969891      0.34264814 H
atom_frac       0.69252738      0.42378018      0.13593596 H
atom_frac       0.76640062      0.69743000      0.43530866 H
atom_frac       1.17796067      0.66132350      0.87767711 H
atom_frac       0.92584735      0.11407199      0.39049235 H
atom_frac       0.36898168      0.21494274      0.60194113 H
atom_frac       0.83167327      1.01836698      0.63375172 H
atom_frac       0.30321897      0.56872795      0.85744665 H
atom_frac       0.23714162      0.29128374      0.51803832 H
atom_frac      -0.17384422      0.34496324      0.12014598 H
atom_frac       0.12165391      0.74912252      0.61102354 H
atom_frac       0.66897826      0.80739997      0.36677570 H
atom_frac       0.25346775     -0.02213843      0.34069067 H
atom_frac       0.54466963      0.33787601      0.06859059 H
atom_frac       0.79861203      0.61988484      0.26953513 H
atom_frac       1.23970927      0.80206586      0.97628999 H
atom_frac       0.94660715      0.25309293      0.37918706 H
atom_frac       0.37083971      0.18358294      0.81263583 H
atom_frac       0.78577848      1.08981581      0.78786313 H
atom_frac       0.45216473      0.64876247      0.92193661 H
atom_frac       0.17385683      0.34040560      0.68010061 H
atom_frac      -0.22445760      0.20532284      0.02419198 H
atom_frac       0.07811928      0.83166879      0.75187417 H
atom_frac       0.63746555      0.81441342      0.15164925 H
atom_frac       0.17296277     -0.08686256      0.55616629 N
atom_frac      -0.34958829      0.26010170      0.04445862 N
atom_frac       0.72253255      0.71769553      0.19181478 N
atom_frac       0.35491933      0.73545409      0.94600908 N
atom_frac       0.86822485      0.18205989      0.59210724 N
atom_frac       0.26358635      0.25574687      0.75873554 N
atom_frac       0.64632889      0.19123440      0.36094067 O
atom_frac       0.78037406      0.42512180      0.37149876 O
atom_frac       0.52678634      0.31751858      0.40019901 O
initial_moment 1.0
atom_frac       0.81835085      0.34642844      0.63694045 O
initial_moment 1.0
atom_frac       0.58254614      0.20852120      0.66912079 O
atom_frac       0.65537713      0.45359961      0.65883935 O
atom_frac       0.35701575      0.80788180      0.61810427 O
initial_moment 0.0
atom_frac       0.22746230      0.58139558      0.61704558 O
atom_frac       0.46703494      0.68308605      0.59320958 O
atom_frac       0.19139361      0.64434963      0.34774807 O
atom_frac       0.41902598      0.79076553      0.31904769 O
atom_frac       0.35031605      0.55688152      0.33737583 O
