# 
# This is the geometry file that corresponds to the current relaxation step.
# If you do not want this file to be written, set the "write_restart_geometry" flag to .false.
#  aims_uuid : F183CEE7-0143-4888-A5FC-7E996854F13B                                
# 
lattice_vector     13.75052104     -0.19382582      0.06037598
lattice_vector     -6.59708472     11.56669829     -0.06118447
lattice_vector      0.49283759     -0.45912768      8.79385546
atom_frac       0.31713490     -0.28361913      0.00333649 C
atom_frac       0.74349605      0.49267483      0.99474727 C
atom_frac       0.68279155      1.28358893      0.99662770 C
atom_frac       0.25647368      0.50730700      0.00526980 C
atom_frac       0.53302405     -0.00648819      0.34237904 C
atom_frac       1.00478403      0.53156073      0.34725257 C
atom_frac       0.47491099      0.46384853      0.34278919 C
atom_frac      -0.00479617      0.46846623      0.65274642 C
atom_frac       0.46695940      1.00650509      0.65760601 C
atom_frac       0.52508883      0.53618136      0.65719885 C
atom_frac       0.56792287      0.10097864      0.42102386 C
atom_frac       0.90153702      0.46541032      0.42274744 C
atom_frac       0.54219185      0.43520668      0.42036804 C
atom_frac       0.89593729      0.43498891      0.57653983 C
atom_frac       0.53502934      0.10756995      0.57866857 C
atom_frac       0.56723284      0.47061083      0.57779015 C
atom_frac       0.43206253      0.89903887      0.57896178 C
atom_frac       0.09845106      0.53461292      0.57725010 C
atom_frac       0.45780499      0.56482037      0.57962118 C
atom_frac       0.10405068      0.56503572      0.42345774 C
atom_frac       0.46495558      0.89244709      0.42131738 C
atom_frac       0.43276441      0.52941614      0.42219893 C
atom_frac       0.56869034     -0.01417936      0.15375649 Cl
atom_frac       1.00858714      0.56507939      0.16174207 Cl
atom_frac       0.44966686      0.42427052      0.15283189 Cl
atom_frac      -0.00860345      0.43494819      0.83825875 Cl
atom_frac       0.43128624      1.01419098      0.84622694 Cl
atom_frac       0.55033654      0.57576249      0.84715491 Cl
atom_frac       0.67046531      0.33895072      0.50276143 V
initial_moment 2.0
atom_frac       0.32952335      0.66106755      0.49723079 V
initial_moment 1.0
atom_frac       0.23495586      0.58945627     -0.17190155 H
atom_frac       0.76502642      0.41049985      1.17186789 H
atom_frac       0.36501950      0.62355754     -0.15554795 H
atom_frac       0.63496748      0.37642837      1.15557876 H
atom_frac       0.38403099     -0.26077373      0.08403389 H
atom_frac       0.68031205      0.47182239      0.90892887 H
atom_frac       0.61588082      1.26076786      0.91596649 H
atom_frac       0.31963818      0.52818389      0.09112851 H
atom_frac       0.24003075     -0.30049999      0.06835428 H
atom_frac       0.82361351      0.51198571      0.93662484 H
atom_frac       0.75987554      1.30045428      0.93156648 H
atom_frac       0.17633493      0.48797419      0.06334178 H
initial_moment 1.0
atom_frac       0.34293416     -0.21316017     -0.07428990 H
atom_frac       0.75537897      0.56794250      1.06910125 H
atom_frac       0.65699280      1.21311845      1.07423426 H
atom_frac       0.24463105      0.43204284     -0.06905976 H
atom_frac       0.29423283      0.60892653     -0.08776199 N
atom_frac       0.70573571      0.39104395      1.08775665 N
atom_frac       0.62992169      0.20316416      0.36487351 O
atom_frac       0.80142146      0.42355293      0.36489791 O
atom_frac       0.58954793      0.37636245      0.36148314 O
initial_moment -1.0
atom_frac       0.79298632      0.37522136      0.63229691 O
initial_moment -1.0
atom_frac       0.57458085      0.21426771      0.63417998 O
atom_frac       0.63086829      0.43622609      0.63332971 O
atom_frac       0.37006492      0.79685395      0.63511374 O
atom_frac       0.19856722      0.57646376      0.63509516 O
atom_frac       0.41044415      0.62365894      0.63850868 O
atom_frac       0.20700130      0.62479892      0.36769825 O
atom_frac       0.42540449      0.78574937      0.36580684 O
atom_frac       0.36912472      0.56379631      0.36666079 O
