lattice_vector     11.44057932     -6.28898809     -0.31059128
lattice_vector      0.32476398     13.52027157     -0.31243895
lattice_vector     -0.31361580     -0.56856663      7.98502294
atom_frac       0.21339659     -0.06292413      0.32965428 C
atom_frac       0.63099317      0.34866321      0.05148259 C
atom_frac       0.71946731      0.63967664      0.29816057 C
atom_frac       1.22821002      0.72440978      0.96566165 C
atom_frac       0.88976702      0.15930821      0.44031317 C
atom_frac       0.38317775      0.24946132      0.75482177 C
atom_frac       0.78640173      1.06271503      0.66992089 C
atom_frac       0.36902618      0.65130184      0.94846230 C
atom_frac       0.28055071      0.36031429      0.70198166 C
atom_frac      -0.22824485      0.27549335      0.03416918 C
atom_frac       0.11051580      0.84078393      0.55978915 C
atom_frac       0.61680371      0.75048768      0.24523587 C
atom_frac       0.53583345     -0.00884065      0.34294053 C
atom_frac      -0.02414190      0.53779261      0.35747782 C
atom_frac       0.42877598      0.42496992      0.36846475 C
atom_frac       0.02411760      0.46211828      0.64243309 C
atom_frac       0.46410552      0.00880356      0.65698306 C
atom_frac       0.57118198      0.57498777      0.63156665 C
atom_frac       0.57589654      0.09737387      0.43098763 C
atom_frac       0.88281267      0.46106615      0.43647827 C
atom_frac       0.50784291      0.40069340      0.45261951 C
atom_frac       0.91111688      0.42377405      0.57930267 C
atom_frac       0.54053774      0.10636951      0.59369289 C
atom_frac       0.58078711      0.47735377      0.58969571 C
atom_frac       0.42404514      0.90259010      0.56893713 C
atom_frac       0.11716161      0.53885063      0.56343927 C
atom_frac       0.49212271      0.59927094      0.54739760 C
atom_frac       0.08885791      0.57613362      0.42060247 C
atom_frac       0.45940090      0.89359316      0.40622848 C
atom_frac       0.41918095      0.52260927      0.41032049 C
atom_frac       0.58064651     -0.01813200      0.14226307 Cl
atom_frac      -0.05014524      0.57979699      0.17000547 Cl
atom_frac       0.32694798      0.32097179      0.21819348 Cl
atom_frac       0.05011106      0.42012212      0.82991893 Cl
atom_frac       0.41933738      0.01808408      0.85769519 Cl
atom_frac       0.67300257      0.67898113      0.78185476 Cl
atom_frac       0.65931337      0.32366617      0.53054672 V
initial_moment 2.0
atom_frac       0.34065774      0.67629381      0.46941030 V
initial_moment 1.0
atom_frac       0.06179962     -0.20762390      0.31048019 H
atom_frac      -0.36500222      0.22196768      0.18089272 H
atom_frac       0.77996166      0.78271969      0.18076109 H
atom_frac       0.36502961      0.77801114      0.81907970 H
atom_frac       0.93802594      0.20741963      0.68976964 H
atom_frac       0.22003329      0.21725173      0.81933415 H
atom_frac       0.17376359     -0.27125925      0.36062855 H
atom_frac      -0.40231885      0.18868530     -0.02901222 H
atom_frac       0.67829531      0.67515957      0.06600885 H
atom_frac       0.40226717      0.81124904      1.02901492 H
atom_frac       0.82619043      0.27116155      0.63926741 H
atom_frac       0.32171641      0.32478845      0.93410111 H
atom_frac       0.29661676     -0.02644947      0.40247339 H
atom_frac       0.64389382      0.37286617     -0.07505879 H
atom_frac       0.63687637      0.56590898      0.30303892 H
atom_frac       1.20550799      0.69123245      1.08508452 H
atom_frac       0.95475653      0.24020538      0.40924272 H
atom_frac       0.46763794      0.32227351      0.76357061 H
atom_frac       0.70326827      1.02636326      0.59689458 H
atom_frac       0.35606993      0.62706106      1.07497937 H
atom_frac       0.36315451      0.43406418      0.69709016 H
atom_frac      -0.20559853      0.30862508     -0.08529410 H
atom_frac       0.04563206      0.75993864      0.59118360 H
atom_frac       0.53234353      0.67767188      0.23643516 H
atom_frac       0.17832477     -0.00299521      0.34420949 H
atom_frac       0.69109378      0.41528323      0.14426571 H
atom_frac       0.74851010      0.68433490      0.42426487 H
atom_frac       1.17251416      0.66344636      0.86308011 H
atom_frac       0.81146222      0.13353221      0.35909772 H
atom_frac       0.36038377      0.21260787      0.62419454 H
atom_frac       0.82143819      1.00275853      0.65530390 H
atom_frac       0.30897775      0.58469707      0.85561337 H
atom_frac       0.25147665      0.31566715      0.57587543 H
atom_frac      -0.17248617      0.33648359      0.13667969 H
atom_frac       0.18896234      0.86665711      0.64071735 H
atom_frac       0.63956062      0.78731989      0.37587516 H
atom_frac       0.22842969     -0.07483193      0.19788869 H
atom_frac       0.54330772      0.32553168      0.08478481 H
atom_frac       0.78261713      0.61577516      0.24869735 H
atom_frac       1.22168229      0.80159988      0.96410014 H
atom_frac       0.92202203      0.09763296      0.41548851 H
atom_frac       0.38411024      0.18897914      0.83374709 H
atom_frac       0.77119592      1.07445336      0.80164829 H
atom_frac       0.45673758      0.67447131      0.91525658 H
atom_frac       0.21742658      0.38423727      0.75148652 H
atom_frac      -0.22173588      0.19829428      0.03574511 H
atom_frac       0.07827553      0.90246575      0.58466384 H
atom_frac       0.61589128      0.81098273      0.16631984 H
atom_frac       0.13642348     -0.17028646      0.38528284 N
atom_frac      -0.34822331      0.25099953      0.06140817 N
atom_frac       0.70285934      0.71394737      0.18803610 N
atom_frac       0.34821655      0.74895036      0.93853996 N
atom_frac       0.86352650      0.17016592      0.61469203 N
atom_frac       0.29714300      0.28601674      0.81206538 N
atom_frac       0.64902329      0.19114373      0.37293515 O
atom_frac       0.77433727      0.41976919      0.38152432 O
atom_frac       0.52053221      0.31042626      0.41303335 O
initial_moment -1.0
atom_frac       0.81929155      0.34414273      0.64901363 O
initial_moment -1.0
atom_frac       0.58556833      0.20781851      0.68013982 O
atom_frac       0.65318331      0.45062026      0.66716765 O
atom_frac       0.35094394      0.80881752      0.62701353 O
initial_moment -1.0
atom_frac       0.22563868      0.58017644      0.61841694 O
atom_frac       0.47944608      0.68954729      0.58694966 O
atom_frac       0.18068011      0.65576638      0.35088696 O
atom_frac       0.41439061      0.79214240      0.31979631 O
atom_frac       0.34680173      0.54935012      0.33281610 O
