#use_local_index      .true.
#load_balancing      .true.


#Physical settings
  xc                 hse06 0.11    #for HSE06 calculations
  hse_unit           B          #for HSE06 calculations
#  xc                 hf         #for HF calculations
#  xc                 pbesol         #for PBESol calculations
#  spin               collinear      #for spin-polarized (unrestricted) calcs
  relativistic       atomic_zora scalar #Atomic ZORA approximation (computationally cheap)
  vdw_correction_hirshfeld
# SCF settings #relaxed convergence criteria
  sc_accuracy_rho    1E-4
  sc_accuracy_eev    1E-2
  sc_accuracy_etot   1E-5
  sc_iter_limit      500

#Relaxation parameters
#  compute_forces      .true.
  relax_geometry     trm    1E-2
#  relax_unit_cell    full
#  collect_eigenvectors .false.
#  charge            30      #total charge of the system
#  fixed_spin_moment 8    #total spin moment in the calc
#  energy_tolerance   1E-3   #energy tolerance to move uphill

#k_grid 1 1 1 #k-points grid

#KS_method serial

# OUTPUT keywords
# To output band structure. E.g. diamond band structure:
#  output                             band   0.50000  0.00000  0.00000   0.00000  0.00000  0.00000    21 X  G
#  output                             band   0.00000  0.00000  0.00000   0.00000 -0.50000  0.50000    21 G  Y
#  output                             band   0.00000 -0.50000  0.50000   0.00000  0.00000  0.00000    21 Y  G
#  output                             band   0.00000  0.00000  0.00000   0.00000  0.00000 -0.50000    21 G  Z
#  exx_band_structure_version 1

#output mulliken
#cube_content_unit  bohr
#cube origin 0 0 0 #cube origin coordinates
# DOS plot: eV range, number of points, broadening
#output dos -10. 10. 1000 0.05
#output species_proj_dos -10. 10. 1000 0.05
#output cube hartree_potential
#output cube total_density
#output cube spin_density
#output postscf_eigenvalues
#output Z2_invariant 2 100 40
#output cube eigenstate 265
#cube spinstate 1 
#output cube eigenstate 266
#cube spinstate 1 
# spin channel to be printed in a collinear calc
# Basis Set:
################################################################################
#
#  FHI-aims code project
#  Volker Blum, 2017
#
#  Suggested "intermediate" defaults for H atom (to be pasted into control.in file)
#
################################################################################
  species        H
#     global species definitions
    nucleus             1
    mass                1.00794
#
    l_hartree           6
#
    cut_pot             4.0  2.0  1.0
    basis_dep_cutoff    1e-4
#     
    radial_base         24 7.0
    radial_multiplier   2
    angular_grids       specified
      division   0.1930   50
      division   0.3175  110
      division   0.4293  194
      division   0.5066  302
      division   0.5626  434
#      division   0.5922  590
#      division   0.6227  974
#      division   0.6868 1202
#      outer_grid  770
      outer_grid  434
################################################################################
#
#  Definition of "minimal" basis
#
################################################################################
#     valence basis states
    valence      1  s   1.
#     ion occupancy
    ion_occ      1  s   0.5
################################################################################
#
#  Suggested additional basis functions. For production calculations, 
#  uncomment them one after another (the most important basis functions are
#  listed first).
#
#  Basis constructed for dimers: 0.5 A, 0.7 A, 1.0 A, 1.5 A, 2.5 A
#
################################################################################
#  "First tier" - improvements: -1014.90 meV to -62.69 meV
     hydro 2 s 2.1
     hydro 2 p 3.5
#  "Second tier" - improvements: -12.89 meV to -1.83 meV
     hydro 1 s 0.85
#     hydro 2 p 3.7
#     hydro 2 s 1.2
  for_aux    hydro 3 d 7
#  "Third tier" - improvements: -0.25 meV to -0.12 meV
#     hydro 4 f 11.2
#     hydro 3 p 4.8
#     hydro 4 d 9
#     hydro 3 s 3.2
################################################################################
#
#  FHI-aims code project
#  Volker Blum, 2017
#
#  Suggested "intermediate" defaults for C atom (to be pasted into control.in file)
#
################################################################################
  species        C
#     global species definitions
    nucleus             6
    mass                12.0107
#
    l_hartree           6
#
    cut_pot             4.0  2.0  1.0
    basis_dep_cutoff    1e-4
#
    radial_base         34 7.0
    radial_multiplier   2
    angular_grids specified
      division   0.2187   50
      division   0.4416  110
      division   0.6335  194
      division   0.7727  302
      division   0.8772  434
#      division   0.9334  590
#      division   0.9924  770
#      division   1.0230  974
#      division   1.5020 1202
#     outer_grid  974
      outer_grid  434
################################################################################
#
#  Definition of "minimal" basis
#
################################################################################
#     valence basis states
    valence      2  s   2.
    valence      2  p   2.
#     ion occupancy
    ion_occ      2  s   1.
    ion_occ      2  p   1.
################################################################################
#
#  Suggested additional basis functions. For production calculations, 
#  uncomment them one after another (the most important basis functions are
#  listed first).
#
#  Constructed for dimers: 1.0 A, 1.25 A, 1.5 A, 2.0 A, 3.0 A
#
################################################################################
#  "First tier" - improvements: -1214.57 meV to -155.61 meV
     hydro 2 p 1.7
     hydro 3 d 6
     hydro 2 s 4.9
#  "Second tier" - improvements: -67.75 meV to -5.23 meV
     hydro 4 f 9.8
#     hydro 3 p 5.2
#     hydro 3 s 4.3
  for_aux    hydro 5 g 14.4
#     hydro 3 d 6.2
#  "Third tier" - improvements: -2.43 meV to -0.60 meV
#     hydro 2 p 5.6
#     hydro 2 s 1.4
#     hydro 3 d 4.9
#     hydro 4 f 11.2
#  "Fourth tier" - improvements: -0.39 meV to -0.18 meV
#     hydro 2 p 2.1
#     hydro 5 g 16.4
#     hydro 4 d 13.2
#     hydro 3 s 13.6
#     hydro 4 f 17.6
#  Further basis functions - improvements: -0.08 meV and below
#     hydro 3 s 2
#     hydro 3 p 6
#     hydro 4 d 20
################################################################################
#
#  FHI-aims code project
#  Volker Blum, 2017
#
#  Suggested "intermediate" defaults for N atom (to be pasted into control.in file)
#
################################################################################
  species        N
#     global species definitions
    nucleus             7
    mass                14.0067
#
    l_hartree           6
#
    cut_pot             4.0  2.0  1.0
    basis_dep_cutoff    1e-4
#
    radial_base         35 7.0
    radial_multiplier   2
    angular_grids       specified
      division   0.1841   50
      division   0.3514  110
      division   0.5126  194
      division   0.6292  302
      division   0.6939  434
#      division   0.7396  590
#      division   0.7632  770
#      division   0.8122  974
#      division   1.1604 1202
#      outer_grid  974
      outer_grid  434
################################################################################
#
#  Definition of "minimal" basis
#
################################################################################
#     valence basis states
    valence      2  s   2.
    valence      2  p   3.
#     ion occupancy
    ion_occ      2  s   1.
    ion_occ      2  p   2.
################################################################################
#
#  Suggested additional basis functions. For production calculations, 
#  uncomment them one after another (the most important basis functions are
#  listed first).
#
#  Constructed for dimers: 1.0 A, 1.1 A, 1.5 A, 2.0 A, 3.0 A
#
################################################################################
#  "First tier" - improvements: -1193.42 meV to -220.60 meV
     hydro 2 p 1.8
     hydro 3 d 6.8
     hydro 3 s 5.8
#  "Second tier" - improvements: -80.21 meV to -6.86 meV
     hydro 4 f 10.8
#     hydro 3 p 5.8
#     hydro 1 s 0.8
  for_aux    hydro 5 g 16
#     hydro 3 d 4.9
#  "Third tier" - improvements: -4.29 meV to -0.53 meV
#     hydro 3 s 16
#     ionic 2 p auto
#     hydro 3 d 6.6
#     hydro 4 f 11.6
#  "Fourth tier" - improvements: -0.75 meV to -0.25 meV
#     hydro 2 p 4.5
#     hydro 2 s 2.4
#     hydro 5 g 14.4
#     hydro 4 d 14.4
#     hydro 4 f 16.8
# Further basis functions - -0.21 meV and below
#     hydro 3 p 14.8
#     hydro 3 s 4.4
#     hydro 3 d 19.6
#     hydro 5 g 12.8
