lattice_vector     11.44057932     -6.28898809     -0.31059128
lattice_vector      0.32476398     13.52027157     -0.31243895
lattice_vector     -0.31361580     -0.56856663      7.98502294
atom_frac       0.17635552     -0.08220740      0.37290906 C
atom_frac       0.64074012      0.36970604      0.03203049 C
atom_frac       0.74895759      0.65569132      0.32692943 C
atom_frac       1.23887748      0.72725505      0.98864049 C
atom_frac       0.92257459      0.17595576      0.38304563 C
atom_frac       0.35854306      0.23809185      0.72267219 C
atom_frac       0.82364352      1.08216301      0.62704140 C
atom_frac       0.35924629      0.63023738      0.96793256 C
atom_frac       0.25103540      0.34425519      0.67303476 C
atom_frac      -0.23889127      0.27268820      0.01131860 C
atom_frac       0.07741613      0.82399737      0.61689810 C
atom_frac       0.64144567      0.76184972      0.27728476 C
atom_frac       0.53488788     -0.01019148      0.34060079 C
atom_frac      -0.01718089      0.53501256      0.34772986 C
atom_frac       0.43202526      0.42875489      0.35898633 C
atom_frac       0.01716896      0.46493075      0.65223124 C
atom_frac       0.46509994      0.01013430      0.65935967 C
atom_frac       0.56796283      0.57118950      0.64097517 C
atom_frac       0.57144278      0.09621375      0.42690694 C
atom_frac       0.88773544      0.46236807      0.42709458 C
atom_frac       0.51439009      0.40696520      0.43891166 C
atom_frac       0.90540323      0.42780166      0.58072013 C
atom_frac       0.53780345      0.10707062      0.59008782 C
atom_frac       0.58186961      0.47788866      0.58324703 C
atom_frac       0.42854484      0.90372923      0.57305331 C
atom_frac       0.11225258      0.53757542      0.57286671 C
atom_frac       0.48559791      0.59297909      0.56104993 C
atom_frac       0.09458474      0.57214204      0.41924140 C
atom_frac       0.46218428      0.89287230      0.40987255 C
atom_frac       0.41811838      0.52205553      0.41671474 C
atom_frac       0.57937694     -0.02041708      0.14105848 Cl
atom_frac      -0.03607148      0.57729894      0.15753503 Cl
atom_frac       0.33720504      0.33107610      0.19798395 Cl
atom_frac       0.03606020      0.42264334      0.84242495 Cl
atom_frac       0.42061115      0.02035932      0.85890230 Cl
atom_frac       0.66278250      0.66886862      0.80197759 Cl
atom_frac       0.66746273      0.32555289      0.51964094 V
initial_moment 2.0
atom_frac       0.33252487      0.67439056      0.48032022 V
initial_moment -1.0
atom_frac       0.11430219     -0.01541266      0.56656510 H
atom_frac      -0.37476393      0.23618211      0.15847239 H
atom_frac       0.81705419      0.81687381      0.26163104 H
atom_frac       0.37475200      0.76376154      0.84149045 H
atom_frac       0.88568724      0.01536517      0.43337639 H
atom_frac       0.18293458      0.18306969      0.73832161 H
atom_frac       0.01261596     -0.11228984      0.43818948 H
atom_frac      -0.41254068      0.20461817     -0.04839016 H
atom_frac       0.73296249      0.71714457      0.10769747 H
atom_frac       0.41252642      0.79532493      1.04835380 H
atom_frac       0.98737869      0.11224102      0.56174658 H
atom_frac       0.26702535      0.28279435      0.89226140 H
atom_frac       0.15153551     -0.16409635      0.30420189 H
atom_frac       0.65824630      0.39368622     -0.09401479 H
atom_frac       0.66792136      0.57859541      0.30692730 H
atom_frac       1.21524019      0.69847054      1.11086136 H
atom_frac       0.95942664      0.25936732      0.45231313 H
atom_frac       0.43896402      0.31440200      0.75563187 H
atom_frac       0.84847319      1.16405092      0.69575900 H
atom_frac       0.34173581      0.60625539      1.09397618 H
atom_frac       0.33207125      0.42135102      0.69304618 H
atom_frac      -0.21525315      0.30147669     -0.11089993 H
atom_frac       0.04056006      0.74058509      0.54763186 H
atom_frac       0.56102526      0.68553868      0.24432744 H
atom_frac       0.26202247     -0.05008303      0.43624811 H
atom_frac       0.70472984      0.43219721      0.12566187 H
atom_frac       0.76570608      0.68696857      0.46012176 H
atom_frac       1.17740194      0.66776661      0.88956036 H
atom_frac       0.83869186      0.15561584      0.32278463 H
atom_frac       0.35092812      0.21300079      0.58807721 H
atom_frac       0.73797625      1.05004914      0.56370893 H
atom_frac       0.29525964      0.56774724      0.87429681 H
atom_frac       0.23429199      0.31298332      0.53984060 H
atom_frac      -0.17741567      0.33217326      0.11040168 H
atom_frac       0.16129851      0.84433406      0.67715748 H
atom_frac       0.64906113      0.78694281      0.41187910 H
atom_frac       0.17492607     -0.02421743      0.28830541 H
atom_frac       0.55495948      0.35637834      0.06211670 H
atom_frac       0.81932723      0.64112832      0.28224826 H
atom_frac       1.24397904      0.80949420      0.98426517 H
atom_frac       0.98037959      0.17160762      0.28996390 H
atom_frac       0.35629191      0.17168201      0.79115075 H
atom_frac       0.82506813      1.02416559      0.71163429 H
atom_frac       0.44502842      0.64356616      0.93785328 H
atom_frac       0.18066374      0.35881585      0.71771287 H
atom_frac      -0.24399411      0.19044787      0.01568600 H
atom_frac       0.01961347      0.82834945      0.70998127 H
atom_frac       0.64369537      0.82825792      0.20880357 H
atom_frac       0.09239506     -0.09360585      0.49919013 N
atom_frac      -0.35379895      0.26367664      0.04160614 N
atom_frac       0.73968569      0.74082780      0.23422397 N
atom_frac       0.35378562      0.73626683      0.95835614 N
atom_frac       0.90759826      0.09355882      0.50075211 N
atom_frac       0.26030371      0.25911456      0.76573405 N
atom_frac       0.63939642      0.19164412      0.36826812 O
atom_frac       0.77828621      0.41816702      0.37026929 O
atom_frac       0.53792750      0.32413708      0.39273076 O
initial_moment 1.0
atom_frac       0.80936642      0.35814595      0.64304600 O
initial_moment 1.0
atom_frac       0.58045690      0.21080932      0.66591648 O
atom_frac       0.65460227      0.44737188      0.64942580 O
atom_frac       0.36059096      0.80829900      0.63169213 O
initial_moment 1.0
atom_frac       0.22170175      0.58177627      0.62969183 O
atom_frac       0.46206026      0.67580697      0.60723082 O
atom_frac       0.19062145      0.64179786      0.35691549 O
atom_frac       0.41953072      0.78913360      0.33404398 O
atom_frac       0.34538537      0.55257191      0.35053619 O
