lattice_vector        40.32953326        0.12191345       -0.12037467
lattice_vector        -4.73094901       11.22834922       -0.67345462
lattice_vector        -1.32175542       -1.82188195        7.01118075
atom_frac         0.18835955        0.62059152        0.85384578  C
atom_frac         0.51892760        0.61175966        0.60023507  C
atom_frac         0.83914112        0.55669941        0.37768336  C
atom_frac         0.19678825        0.09869210        0.64934289  C
atom_frac         0.50873535        0.06616717        0.37868583  C
atom_frac         0.83317183        0.01878533        0.15337630  C
atom_frac         0.28760948        0.48115707        0.56311924  C
atom_frac         0.60448073        0.41993500        0.24799436  C
atom_frac         0.95244955        0.40951895        0.30373094  C
atom_frac         0.16722658        0.40400394        0.63142130  C
atom_frac         0.49148470        0.39796275        0.36412525  C
atom_frac         0.81898568        0.34433459        0.14860950  C
atom_frac         0.30652888        0.45472089        0.73244434  C
atom_frac         0.62259619        0.39403663        0.41621361  C
atom_frac         0.95312876        0.39732774        0.50169688  C
atom_frac         0.18756812        0.14822954        0.82751169  C
atom_frac         0.50421134        0.12837520        0.56651144  C
atom_frac         0.82360626        0.06691645        0.33027900  C
atom_frac         0.19576614        0.51738749        0.79442062  C
atom_frac         0.52327577        0.50527860        0.52079176  C
atom_frac         0.84688901        0.45445235        0.31560594  C
atom_frac         0.13959403        0.94063376        0.78337556  C
atom_frac         0.46127691        0.92573899        0.56823639  C
atom_frac         0.77709440        0.85883551        0.28804620  C
atom_frac         0.02005488        0.53491471        0.61961637  C
atom_frac         0.36576801        0.55136465        0.66713668  C
atom_frac         0.68182698        0.47856840        0.33926778  C
atom_frac         0.15264949        0.61196992        0.77438012  C
atom_frac         0.48325815        0.60989988        0.55162238  C
atom_frac         0.80438287        0.55185633        0.29066112  C
atom_frac         0.01954875        0.54527988        0.41952480  C
atom_frac         0.34654263        0.57634501        0.49543065  C
atom_frac         0.66426617        0.50990701        0.17681403  C
atom_frac         0.14930426        0.89240196        0.60695121  C
atom_frac         0.46470249        0.86484119        0.37697169  C
atom_frac         0.78612001        0.81066061        0.10889032  C
atom_frac         0.12499377        0.50215430        0.60613019  C
atom_frac         0.45125985        0.50044931        0.39698192  C
atom_frac         0.77594951        0.43963586        0.12659084  C
atom_frac         0.17874121        0.97010721        0.55142495  C
atom_frac         0.48996520        0.93672755        0.29252891  C
atom_frac         0.81385987        0.89163309        0.04686352  C
atom_frac         0.30792717        0.54135359        0.44996280  C
atom_frac         0.62609256        0.48012847        0.13726979  C
atom_frac         0.98611737        0.47581086        0.27297974  C
atom_frac         0.13267229        0.40004178        0.54316816  C
atom_frac         0.45635365        0.39686811        0.30824152  C
atom_frac         0.78344735        0.33677626        0.06785444  C
atom_frac         0.34487251        0.48642749        0.77591313  C
atom_frac         0.66079588        0.42118663        0.45375494  C
atom_frac         0.98643998        0.46398946        0.65481197  C
atom_frac         0.15902134        1.06774430        0.88704315  C
atom_frac         0.48110172        1.05488758        0.65728598  C
atom_frac         0.79519277        0.98676062        0.38918363  C
atom_frac         0.18698183        0.91145550        0.33901053  Cl
atom_frac         0.49612895        0.86738147        0.08236704  Cl
atom_frac         0.82420598        0.83398278       -0.15853814  Cl
atom_frac         0.28567544        0.56647549        0.25148900  Cl
atom_frac         0.60412025        0.51449980       -0.05054749  Cl
atom_frac         0.10127831        0.27701223        0.34192864  Cl
atom_frac         0.41980718        0.27010049        0.13198899  Cl
atom_frac         0.74966922        0.20054392       -0.10589797  Cl
atom_frac         0.36683032        0.45459856        0.96522098  Cl
atom_frac         0.68245641        0.39116339        0.64995121  Cl
atom_frac         0.98578206        0.46111942        0.88900944  Cl
atom_frac         0.22215478        0.75729357        1.02498282  Cl
atom_frac         0.55593496        0.74046843        0.77297739  Cl
atom_frac         0.87065478        0.68238747        0.57529659  Cl
atom_frac         0.78614059        1.04475905        0.59908609  Cl
atom_frac         0.47773677        1.11391927        0.88267185  Cl
atom_frac         0.14758789        1.12993989        1.08451528  Cl
atom_frac         0.23109200        0.35749178        0.73620087  Fe
  initial_moment 5.0
atom_frac         0.54870494        0.32044280        0.42888163  Fe
  initial_moment 5.0
atom_frac         0.87645134        0.27838276        0.27778422  Fe
  initial_moment 5.0
atom_frac         0.09497384        0.67759519        0.64306179  Fe
  initial_moment 5.0
atom_frac         0.42218803        0.67052176        0.50358575  Fe
  initial_moment 5.0
atom_frac         0.74138252        0.60077970        0.19056845  Fe
  initial_moment 5.0
atom_frac         0.21947905        0.18053251        0.59326537  O
atom_frac         0.53083732        0.14021421        0.30822495  O
atom_frac         0.86057943        0.09991129        0.11736654  O
atom_frac         0.25214189        0.44432976        0.53456054  O
atom_frac         0.56926346        0.38694923        0.21804383  O
  initial_moment -1.0
atom_frac         0.91935136        0.35301518        0.17913097  O
atom_frac         0.17821601        0.32104323        0.57508905  O
atom_frac         0.49926565        0.31013743        0.28319710  O
atom_frac         0.82935767        0.25989043        0.09299961  O
atom_frac         0.28515567        0.40456035        0.82955582  O
atom_frac         0.60205121        0.35253488        0.52307563  O
atom_frac         0.92127068        0.32296494        0.51449081  O
atom_frac         0.20604580        0.26546159        0.90971514  O
  initial_moment -1.0
atom_frac         0.52336202        0.24743998        0.63042145  O
atom_frac         0.84455510        0.18246659        0.42730394  O
  initial_moment -1.0
atom_frac         0.22660414        0.51295960        0.86514763  O
atom_frac         0.55317448        0.49068427        0.57117053  O
atom_frac         0.87585518        0.44388198        0.39540534  O
atom_frac         0.11188578        0.85940613        0.81973154  O
  initial_moment -1.0
atom_frac         0.43994355        0.85199612        0.64073368  O
atom_frac         0.75265497        0.77642834        0.33716726  O
  initial_moment -1.0
atom_frac         0.05228312        0.59744766        0.74685099  O
atom_frac         0.40106777        0.59357629        0.70168690  O
atom_frac         0.71747817        0.51091202        0.37127810  O
atom_frac         0.14179435        0.69504890        0.83049606  O
atom_frac         0.47512364        0.69476396        0.63275848  O
atom_frac         0.79326193        0.63427102        0.35062977  O
atom_frac         0.05110836        0.62320576        0.41086451  O
atom_frac         0.36773421        0.62916773        0.40109003  O
atom_frac         0.68635511        0.56430026        0.08183006  O
atom_frac         0.12689352        0.77887122        0.50211449  O
atom_frac         0.44399387        0.74832051        0.30702270  O
atom_frac         0.76664348        0.69312851        0.02089364  O
atom_frac         0.09615478        0.51290292        0.52548551  O
  initial_moment -1.0
atom_frac         0.42062795        0.50954109        0.35638399  O
atom_frac         0.74508185        0.44408665        0.05457945  O
atom_frac         0.92220379        1.14478868        0.86979610  C
atom_frac         0.90733515        1.05870596        0.90396692  H
atom_frac         0.95100552        1.16030713        0.87253794  H
atom_frac         0.92259911        1.22473877        0.97383404  H
atom_frac         0.90011485        0.02772497        0.52043815  C
atom_frac         0.91403999        0.21732942        0.63665092  H
atom_frac         0.87493206        1.12217584        0.66803511  H
atom_frac         0.88319838       -0.06114757        0.54193196  H
atom_frac         0.92890450        0.03886758        0.53408070  H
atom_frac         0.88787040        0.02997873        0.37619291  H
atom_frac         0.90186371        0.13296633        0.67217565  N
atom_frac         0.64703796        0.72169602        0.74024183  C
atom_frac         0.65665699        0.80235172        0.86994888  H
atom_frac         0.64768335        0.75303901        0.61102854  H
atom_frac         0.61829857        0.65407806        0.72324563  H
atom_frac         0.71089096        0.74271917        0.75009683  C
atom_frac         0.66202942        0.57931704        0.64731069  H
atom_frac         0.67502170        0.63532941        0.88764583  H
atom_frac         0.72344070        0.83115255        0.86921013  H
atom_frac         0.70808623        0.76163851        0.60997607  H
atom_frac         0.72872529        0.69416448        0.76466645  H
atom_frac         0.67307022        0.66299343        0.76046615  N
atom_frac         0.24250537        0.71788461        0.49045951  C
atom_frac         0.25995892        0.72953758        0.39139555  H
atom_frac         0.22575724        0.77023977        0.47592779  H
atom_frac         0.26031289        0.74972979        0.64077875  H
atom_frac         0.18953156        0.52701511        0.24342173  C
atom_frac         0.20220624        0.57319635        0.54274507  H
atom_frac         0.23245733        0.53041974        0.45611449  H
atom_frac         0.20543431        0.53231374        0.13642156  H
atom_frac         0.17249636        0.57827665        0.22844303  H
atom_frac         0.17164151        0.42849379        0.22405745  H
atom_frac         0.21680728        0.58328502        0.43970839  N
atom_frac         0.05215550        0.77475649        0.11041796  C
atom_frac         0.04108550        0.75391122        0.23088158  H
atom_frac         0.03810239        0.82039294        0.03390306  H
atom_frac         0.04858290        0.68827622        0.00900475  H
atom_frac         0.09960931       -0.02118329        0.33274923  C
atom_frac         0.10408188        0.87881331        0.07562039  H
atom_frac         0.10655116        0.81700982        0.26033081  H
atom_frac         0.08980926       -0.04337844        0.45626694  H
atom_frac         0.08363271        0.02141860        0.26212901  H
atom_frac         0.12957935        0.04387581        0.38195930  H
atom_frac         0.09284702        0.86093818        0.19080044  N
atom_frac         0.73056759        0.24566692        0.43496789  C
atom_frac         0.74842655        0.19753250        0.45615086  H
atom_frac         0.71241884        0.23158028        0.53047157  H
atom_frac         0.71342904        0.21132947        0.28277598  H
atom_frac         0.78120933        0.44120221        0.68356282  C
atom_frac         0.73807273        0.42966844        0.46060002  H
atom_frac         0.77018841        0.39333481        0.38497140  H
atom_frac         0.79939554        0.39424720        0.70368799  H
atom_frac         0.76465352        0.43333767        0.78773667  H
atom_frac         0.79807178        0.54040747        0.70209284  H
atom_frac         0.75482013        0.38123000        0.48459195  N
atom_frac         0.46460476        0.35823892        0.79288693  C
atom_frac         0.44820801        0.39545300        0.86764535  H
atom_frac         0.47029729        0.39897692        0.67624381  H
atom_frac         0.44928849        0.25620312        0.73274621  H
atom_frac         0.52252270        0.52592801        1.04136156  C
atom_frac         0.51657344        0.35730153        0.85754643  H
atom_frac         0.49644602        0.34096335        1.03285823  H
atom_frac         0.50451112        0.55655327        1.11250314  H
atom_frac         0.53085884        0.57879198        0.94082664  H
atom_frac         0.54753761        0.53881330        1.14901348  H
atom_frac         0.50100305        0.39090429        0.93301668  N
