# 
# This is the geometry file that corresponds to the current relaxation step.
# If you do not want this file to be written, set the "write_restart_geometry" flag to .false.
#  aims_uuid : 2D1BFFC1-007E-44CC-AD53-6EE65843AE80                                
# 
lattice_vector     14.88887208      0.78986012      0.03553294
lattice_vector     -6.66242612     10.03844959     -0.07027587
lattice_vector     -0.80581495     -0.45228615      4.42787129
atom_frac       1.00276762      0.41036922      0.70010052 C
atom_frac       0.56959464      0.57712044      0.73572942 C
atom_frac       0.45112509      0.02233496      0.67366275 C
atom_frac       0.55018270      0.96192425      0.26187249 C
atom_frac       0.43141393      0.40727718      0.19903105 C
atom_frac      -0.00198436      0.57364345      0.23393993 C
atom_frac       0.90968123      0.41588578      0.59928671 C
atom_frac       0.60246806      0.50631953      0.58754129 C
atom_frac       0.54062204      0.12300418      0.58044238 C
atom_frac       0.58887190      0.09273911      0.35438770 C
atom_frac       0.53202470      0.42004564      0.30622182 C
atom_frac       0.90617846      0.49608170      0.34999994 C
atom_frac       0.09115572      0.56827104      0.33496527 C
atom_frac       0.39852342      0.47806409      0.34721146 C
atom_frac       0.46061169      0.86127983      0.35478353 C
atom_frac       0.41235929      0.89152414      0.58087868 C
atom_frac       0.46897282      0.56435072      0.62857434 C
atom_frac       0.09464511      0.48803770      0.58422529 C
atom_frac       1.00841743      0.32453995      0.00000166 Cl
atom_frac       0.64504810      0.66401622      0.07669389 Cl
atom_frac       0.40241329      0.05833286      0.95166898 Cl
atom_frac       0.59894295      0.92600086     -0.01618374 Cl
atom_frac       0.35596741      0.32032652      0.85807247 Cl
atom_frac      -0.00771602      0.65953506      0.93427247 Cl
atom_frac       0.69940825      0.37058042      0.46191483 Fe
initial_moment 5.0
atom_frac       0.30152064      0.61372120      0.47253177 Fe
initial_moment 5.0
atom_frac       0.82675731      0.35978962      0.71038445 O
initial_moment -1.0
atom_frac       0.68921128      0.50723096      0.67393136 O
atom_frac       0.58573113      0.24127438      0.67310297 O
atom_frac       0.66093534      0.18923734      0.25786958 O
atom_frac       0.57009410      0.36526074      0.17964848 O
atom_frac       0.81584284      0.48605442      0.25795285 O
atom_frac       0.17411929      0.62448099      0.22405454 O
atom_frac       0.31176532      0.47712041      0.26084659 O
atom_frac       0.41536331      0.74304025      0.26170165 O
initial_moment -1.0
atom_frac       0.34016175      0.79499987      0.67690300 O
atom_frac       0.43086422      0.61908659      0.75507208 O
atom_frac       0.18498180      0.49806501      0.67631290 O
atom_frac       0.72723663      0.90013363      0.59440864 C
atom_frac       0.85460825      0.09868918      0.38951357 C
atom_frac       0.84876635     -0.07938058      0.40194295 H
atom_frac       0.74781211     -0.08372786      0.15534781 H
atom_frac       0.66742772      0.93001547      0.55200342 H
atom_frac       0.79516257      0.12810922      0.32801798 H
atom_frac       0.77803284      0.94187600      0.82846740 H
atom_frac       0.90169217      0.14228679      0.61634195 H
atom_frac       0.68799667      0.79386225      0.57808518 H
atom_frac       0.90562784      0.12974861      0.22332452 H
atom_frac       0.79714868     -0.04533515      0.37800267 N
atom_frac       0.27447556      0.08523078      0.34098171 C
atom_frac       0.14755699      0.88616168      0.54480289 C
atom_frac       0.25381309      1.06858809      0.77992622 H
atom_frac       0.15259687      1.06372377      0.53327921 H
atom_frac       0.22384344      0.04314286      0.10683182 H
atom_frac       0.09914733      0.84277299      0.31916007 H
atom_frac       0.33467643      0.05597931      0.38385588 H
atom_frac       0.20727946      0.85692064      0.60061446 H
atom_frac       0.31319071      0.19145592      0.35696800 H
atom_frac       0.09795312      0.85458756      0.71454393 H
atom_frac       0.20454821      1.03016622      0.55718746 N
