# 
# This is the geometry file that corresponds to the current relaxation step.
# If you do not want this file to be written, set the "write_restart_geometry" flag to .false.
#  aims_uuid : B7D08C12-B66D-437C-A116-DFF5B100CF39                                
# 
lattice_vector     11.44057932     -6.28898809     -0.31059128
lattice_vector      0.32476398     13.52027157     -0.31243895
lattice_vector     -0.31361580     -0.56856663      7.98502294
atom_frac       0.17797651     -0.08638496      0.37401763 C
atom_frac       0.63401347      0.36299728      0.03914303 C
atom_frac       0.74386289      0.65459016      0.32536548 C
atom_frac       1.23806031      0.72516960      0.98648297 C
atom_frac       0.92629416      0.18080367      0.38546712 C
atom_frac       0.36016399      0.23470570      0.71610760 C
atom_frac       0.82215439      1.08665794      0.62607814 C
atom_frac       0.36585778      0.63681123      0.96082967 C
atom_frac       0.25622226      0.34541456      0.67458295 C
atom_frac      -0.23818235      0.27466217      0.01339118 C
atom_frac       0.07387046      0.81920726      0.61448978 C
atom_frac       0.63998909      0.76539305      0.28395868 C
atom_frac       0.53525086     -0.00971105      0.33961215 C
atom_frac      -0.01835917      0.53681743      0.34859359 C
atom_frac       0.43134999      0.42721836      0.35853039 C
atom_frac       0.01825146      0.46300649      0.65124745 C
atom_frac       0.46461935      0.00957217      0.66028099 C
atom_frac       0.56860412      0.57270747      0.64135693 C
atom_frac       0.57280130      0.09698988      0.42776554 C
atom_frac       0.88669855      0.46374947      0.42938869 C
atom_frac       0.51373372      0.40569623      0.44101279 C
atom_frac       0.90558670      0.42707445      0.58200755 C
atom_frac       0.53854436      0.10728524      0.59211211 C
atom_frac       0.58186862      0.47821230      0.58614246 C
atom_frac       0.42707602      0.90286895      0.57213141 C
atom_frac       0.11319676      0.53608727      0.57047921 C
atom_frac       0.48621654      0.59422773      0.55886926 C
atom_frac       0.09430556      0.57276343      0.41785482 C
atom_frac       0.46133632      0.89257443      0.40778362 C
atom_frac       0.41808260      0.52171013      0.41374424 C
atom_frac       0.57908181     -0.01945041      0.13893713 Cl
atom_frac      -0.03839158      0.57989802      0.15904866 Cl
atom_frac       0.33532037      0.32738369      0.19905332 Cl
atom_frac       0.03827171      0.41988437      0.84077500 Cl
atom_frac       0.42077767      0.01930231      0.86095171 Cl
atom_frac       0.66456945      0.67250070      0.80093052 Cl
atom_frac       0.66727546      0.32630187      0.52409823 V
atom_frac       0.33262066      0.67357038      0.47581890 V
atom_frac       0.11372731     -0.01775164      0.56531083 H
atom_frac      -0.37130906      0.23280200      0.17047258 H
atom_frac       0.81548212      0.81708929      0.25935922 H
atom_frac       0.37121235      0.76701340      0.82949897 H
atom_frac       0.88611573      0.01771490      0.43474632 H
atom_frac       0.18465924      0.18296556      0.74077938 H
atom_frac       0.01170880     -0.11489622      0.43280191 H
atom_frac      -0.41469579      0.19718691     -0.03863430 H
atom_frac       0.72511210      0.71655099      0.10562470 H
atom_frac       0.41457124      0.80261767      1.03860281 H
atom_frac       0.98830853      0.11477061      0.56715567 H
atom_frac       0.27504329      0.28356675      0.89438998 H
atom_frac       0.15336438     -0.16934927      0.30547065 H
atom_frac       0.64880848      0.38651694     -0.08927505 H
atom_frac       0.66036730      0.57803765      0.30834421 H
atom_frac       1.21810258      0.69685097      1.11161893 H
atom_frac       0.96264097      0.26481425      0.45656132 H
atom_frac       0.44303630      0.31073235      0.74612947 H
atom_frac       0.84710613      1.16963137      0.69487134 H
atom_frac       0.35096127      0.61324854      1.08920923 H
atom_frac       0.33961616      0.42208023      0.69201623 H
atom_frac      -0.21822649      0.30305725     -0.11170575 H
atom_frac       0.03762405      0.73522804      0.54331744 H
atom_frac       0.55710188      0.68936335      0.25407193 H
atom_frac       0.26349192     -0.05479052      0.44140894 H
atom_frac       0.69875185      0.42833609      0.13182271 H
atom_frac       0.76379359      0.68650813      0.45990898 H
atom_frac       1.17566677      0.66192923      0.88924088 H
atom_frac       0.84255880      0.16102009      0.32161970 H
atom_frac       0.34909484      0.20910092      0.57973566 H
atom_frac       0.73667528      1.05542506      0.55877207 H
atom_frac       0.30121952      0.57149149      0.86801631 H
atom_frac       0.23662563      0.31360961      0.53998584 H
atom_frac      -0.17579139      0.33784455      0.11070359 H
atom_frac       0.15764803      0.83903436      0.67828424 H
atom_frac       0.65115203      0.79107873      0.42031371 H
atom_frac       0.17890926     -0.02730869      0.28757877 H
atom_frac       0.54710726      0.34683504      0.07301115 H
atom_frac       0.81267008      0.63712686      0.27671255 H
atom_frac       1.23744884      0.80580626      0.98128258 H
atom_frac       0.98642473      0.17668006      0.29413284 H
atom_frac       0.35816561      0.16701164      0.78389909 H
atom_frac       0.82097205      1.02737108      0.71232708 H
atom_frac       0.45280682      0.65299421      0.92715806 H
atom_frac       0.18718870      0.36263047      0.72293828 H
atom_frac      -0.23757644      0.19400804      0.01839932 H
atom_frac       0.01371072      0.82320912      0.70586784 H
atom_frac       0.64194700      0.83303016      0.21606276 H
atom_frac       0.09173255     -0.09721144      0.49698768 N
atom_frac      -0.35466534      0.25980312      0.04939088 N
atom_frac       0.73552491      0.74122884      0.23441550 N
atom_frac       0.35454635      0.74000572      0.95056921 N
atom_frac       0.90828390      0.09722686      0.50304819 N
atom_frac       0.26460020      0.25882708      0.76561130 N
atom_frac       0.64213461      0.19335385      0.37089169 O
atom_frac       0.77620189      0.42125319      0.37648081 O
atom_frac       0.53709299      0.32186611      0.39797603 O
atom_frac       0.80934569      0.35687414      0.64465406 O
atom_frac       0.58086429      0.21112338      0.66885678 O
atom_frac       0.65461140      0.44738309      0.65352896 O
atom_frac       0.35773679      0.80650416      0.62902068 O
atom_frac       0.22368538      0.57859806      0.62340549 O
atom_frac       0.46282098      0.67802890      0.60193542 O
atom_frac       0.19054781      0.64298349      0.35523079 O
atom_frac       0.41901461      0.78873366      0.33104679 O
atom_frac       0.34530281      0.55250052      0.34638511 O
# 
# What follows is the current estimated Hessian matrix constructed by the BFGS algorithm.
# This is NOT the true Hessian matrix of the system.
# If you do not want this information here, switch it off using the "hessian_to_restart_geometry" keyword.
# 
trust_radius             0.9077183917
hessian_file
