lattice_vector     11.44057932     -6.28898809     -0.31059128
lattice_vector      0.32476398     13.52027157     -0.31243895
lattice_vector     -0.31361580     -0.56856663      7.98502294
atom_frac       0.16195324     -0.12307756      0.41524320 C
atom_frac       0.63221690      0.36590344      0.03273553 C
atom_frac       0.74381465      0.65369134      0.30805849 C
atom_frac       1.24989034      0.72713317      0.97287000 C
atom_frac       0.89572513      0.18221457      0.41293619 C
atom_frac       0.36402149      0.23923886      0.72179212 C
atom_frac       0.79485979      1.08018496      0.64660920 C
atom_frac       0.36665939      0.62622267      0.94812780 C
atom_frac       0.23849617      0.31913489      0.62937227 C
atom_frac      -0.23088646      0.28779918      0.01142306 C
atom_frac       0.06238908      0.78826064      0.66138479 C
atom_frac       0.64410368      0.76625100      0.25178484 C
atom_frac       0.54128943     -0.00345722      0.32840235 C
atom_frac      -0.01415159      0.54208966      0.34098186 C
atom_frac       0.43313579      0.43369014      0.35414295 C
atom_frac       0.02527353      0.47043126      0.63823183 C
atom_frac       0.46892395      0.01506319      0.64330757 C
atom_frac       0.57019528      0.57908048      0.62977493 C
atom_frac       0.57881900      0.10317796      0.41453711 C
atom_frac       0.89101455      0.47008599      0.42194763 C
atom_frac       0.51265418      0.40953165      0.43686156 C
atom_frac       0.91231338      0.43202133      0.57151473 C
atom_frac       0.54330179      0.11294817      0.57886165 C
atom_frac       0.58344389      0.48444137      0.57919270 C
atom_frac       0.43038574      0.90919777      0.55443198 C
atom_frac       0.11931545      0.54299404      0.55718524 C
atom_frac       0.48857020      0.60152742      0.54841273 C
atom_frac       0.09885201      0.57726711      0.40570975 C
atom_frac       0.46599855      0.89869932      0.39397494 C
atom_frac       0.42102791      0.52887639      0.40654476 C
atom_frac       0.58802834     -0.01381658      0.12943173 Cl
atom_frac      -0.03519783      0.58553635      0.15185694 Cl
atom_frac       0.33746087      0.33573410      0.19329164 Cl
atom_frac       0.04890683      0.42758247      0.82662579 Cl
atom_frac       0.42637213      0.02252980      0.84566358 Cl
atom_frac       0.66974902      0.68120642      0.78414210 Cl
atom_frac       0.66842303      0.33392002      0.51456406 V
initial_moment 2.0
atom_frac       0.33641365      0.68044951      0.45953369 V
initial_moment -1.0
atom_frac       0.23529641     -0.16530259      0.61132472 H
atom_frac      -0.37001754      0.23437584      0.15323334 H
atom_frac       0.80870550      0.79847654      0.19369401 H
atom_frac       0.39019932      0.76569129      0.83444608 H
atom_frac       0.94731414      0.22434909      0.66497565 H
atom_frac       0.18544920      0.16944663      0.73291970 H
atom_frac       0.20520754     -0.05853482      0.66472482 H
atom_frac      -0.40400640      0.20660318     -0.05731632 H
atom_frac       0.70667469      0.69084315      0.07613048 H
atom_frac       0.42073505      0.78973803      1.04436332 H
atom_frac       0.83823803      0.25000834      0.61275685 H
atom_frac       0.26099779      0.28354522      0.86817633 H
atom_frac       0.10491438     -0.08452238      0.40121570 H
atom_frac       0.64790004      0.39309028     -0.09198328 H
atom_frac       0.66064359      0.58021360      0.30913379 H
atom_frac       1.22106992      0.69327137      1.09068016 H
atom_frac       0.81500581      0.15444576      0.33707622 H
atom_frac       0.43867326      0.32126605      0.74870301 H
atom_frac       0.71322648      1.04179201      0.57016044 H
atom_frac       0.34361094      0.59652737      1.07012126 H
atom_frac       0.31309781      0.40165901      0.64116248 H
atom_frac      -0.20783201      0.31962313     -0.10918319 H
atom_frac       0.00048459      0.82106258      0.64088680 H
atom_frac       0.55972351      0.69335544      0.24260965 H
atom_frac       0.12756106     -0.20527284      0.34103476 H
atom_frac       0.69238357      0.42958128      0.12911474 H
atom_frac       0.77109150      0.69733163      0.43475036 H
atom_frac       1.19108808      0.67282426      0.86744898 H
atom_frac       0.93163830      0.12405930      0.38922943 H
atom_frac       0.36228611      0.20667402      0.59185627 H
atom_frac       0.83741891      1.02714229      0.63601612 H
atom_frac       0.30556517      0.56860976      0.84704643 H
atom_frac       0.22789520      0.27822400      0.50185698 H
atom_frac      -0.17490878      0.34879937      0.11363896 H
atom_frac       0.03008499      0.70302262      0.59726918 H
atom_frac       0.66662721      0.80368175      0.38205687 H
atom_frac       0.24791116     -0.06802364      0.37909520 H
atom_frac       0.54420319      0.34389347      0.06305362 H
atom_frac       0.80745510      0.62972706      0.26086111 H
atom_frac       1.25858492      0.81130698      0.97747123 H
atom_frac       0.95741632      0.26533328      0.38558964 H
atom_frac       0.36758671      0.18227002      0.80573572 H
atom_frac       0.77908316      1.09339066      0.77730516 H
atom_frac       0.45324569      0.63930446      0.92330281 H
atom_frac       0.16192941      0.32722028      0.66000100 H
atom_frac      -0.22656741      0.20957551      0.01518069 H
atom_frac       0.07729634      0.78932950      0.79664938 H
atom_frac       0.64392243      0.82674666      0.17197707 H
atom_frac       0.17310829     -0.13666662      0.59526877 N
atom_frac      -0.35056580      0.26563976      0.03754656 N
atom_frac       0.73040322      0.72961751      0.19771865 N
atom_frac       0.36479168      0.73469344      0.94741815 N
atom_frac       0.87145421      0.18937274      0.59120750 N
atom_frac       0.25741534      0.25024001      0.74663542 N
atom_frac       0.65001495      0.19635103      0.35566483 O
atom_frac       0.78247767      0.42924588      0.36450966 O
atom_frac       0.52836164      0.32195508      0.39384109 O
initial_moment 1.0
atom_frac       0.82053056      0.35407970      0.63372075 O
initial_moment 1.0
atom_frac       0.58633702      0.21381499      0.66306484 O
atom_frac       0.65746780      0.45839803      0.65186757 O
atom_frac       0.35466323      0.81388249      0.61122252 O
initial_moment -1.0
atom_frac       0.22912734      0.58757722      0.61231583 O
atom_frac       0.46737924      0.68678232      0.58920170 O
atom_frac       0.19345761      0.64716452      0.33970216 O
atom_frac       0.42272550      0.79551880      0.31384946 O
atom_frac       0.35043196      0.55996760      0.33402482 O
