# 
# This is the geometry file that corresponds to the current relaxation step.
# If you do not want this file to be written, set the "write_restart_geometry" flag to .false.
#  aims_uuid : 016D41A0-08B7-4EC8-A885-621D1C7834CB                                
# 
lattice_vector     11.44057932     -6.28898809     -0.31059128
lattice_vector      0.32476398     13.52027157     -0.31243895
lattice_vector     -0.31361580     -0.56856663      7.98502294
atom_frac       0.16676934     -0.11697523      0.41107839 C
atom_frac       0.63525124      0.36765290      0.03276497 C
atom_frac       0.74333081      0.65406882      0.30963015 C
atom_frac       1.24783098      0.72413634      0.97499701 C
atom_frac       0.89337676      0.17628740      0.40844110 C
atom_frac       0.36429968      0.24120022      0.72108687 C
atom_frac       0.79301149      1.07697143      0.64448869 C
atom_frac       0.36600531      0.62478669      0.95116062 C
atom_frac       0.24005260      0.32358453      0.63443319 C
atom_frac      -0.23004844      0.28703749      0.01228564 C
atom_frac       0.06180593      0.79137478      0.65091709 C
atom_frac       0.64452821      0.76766722      0.25505727 C
atom_frac       0.53955427     -0.00411062      0.32890598 C
atom_frac      -0.01428404      0.54202511      0.34294601 C
atom_frac       0.43450517      0.43462622      0.35487646 C
atom_frac       0.02469443      0.46846793      0.63843029 C
atom_frac       0.46783072      0.01468568      0.64420805 C
atom_frac       0.57075457      0.57961641      0.63179817 C
atom_frac       0.57739287      0.10260840      0.41498127 C
atom_frac       0.89077416      0.46928739      0.42277438 C
atom_frac       0.51388778      0.41060263      0.43819116 C
atom_frac       0.91186644      0.43018924      0.57131897 C
atom_frac       0.54213766      0.11255808      0.57958170 C
atom_frac       0.58449292      0.48517302      0.58096485 C
atom_frac       0.43002135      0.90869115      0.55590544 C
atom_frac       0.11894461      0.54199759      0.55872021 C
atom_frac       0.48903430      0.60179786      0.55011728 C
atom_frac       0.09859942      0.57714144      0.40800983 C
atom_frac       0.46499840      0.89804802      0.39505338 C
atom_frac       0.42201294      0.52947549      0.40774015 C
atom_frac       0.58514805     -0.01454338      0.12941632 Cl
atom_frac      -0.03484899      0.58641820      0.15443181 Cl
atom_frac       0.33987497      0.33726410      0.19293750 Cl
atom_frac       0.04754889      0.42409686      0.82612062 Cl
atom_frac       0.42382668      0.02265480      0.84551745 Cl
atom_frac       0.66923851      0.68171261      0.78706925 Cl
atom_frac       0.66814803      0.33332503      0.51533271 V
atom_frac       0.33616623      0.67993263      0.46193768 V
atom_frac       0.23387591     -0.16733861      0.60438861 H
atom_frac      -0.36926332      0.23536715      0.15440564 H
atom_frac       0.80818836      0.79839026      0.19389471 H
atom_frac       0.38808902      0.76328079      0.83584201 H
atom_frac       0.94610437      0.22083796      0.65954635 H
atom_frac       0.18560228      0.17150319      0.73079106 H
atom_frac       0.20928402     -0.05924040      0.66132219 H
atom_frac      -0.40316552      0.20758775     -0.05596855 H
atom_frac       0.70481052      0.69067921      0.07783822 H
atom_frac       0.41895030      0.78833887      1.04554160 H
atom_frac       0.83705587      0.24638142      0.60813681 H
atom_frac       0.26104617      0.28313643      0.87026313 H
atom_frac       0.11264775     -0.07568126      0.39903787 H
atom_frac       0.65143619      0.39432385     -0.09215654 H
atom_frac       0.65997346      0.58079092      0.31177581 H
atom_frac       1.22031611      0.69157720      1.09400851 H
atom_frac       0.81247918      0.14694084      0.33240051 H
atom_frac       0.43903810      0.32289383      0.75043383 H
atom_frac       0.71279374      1.03667034      0.56437809 H
atom_frac       0.34504238      0.59658319      1.07443705 H
atom_frac       0.31529359      0.40568519      0.64867607 H
atom_frac      -0.20685482      0.31798457     -0.10884181 H
atom_frac       0.00829028      0.83384219      0.64845124 H
atom_frac       0.55985658      0.69526813      0.24911341 H
atom_frac       0.13042318     -0.19751857      0.33350802 H
atom_frac       0.69581239      0.43114870      0.12883267 H
atom_frac       0.77137751      0.69818352      0.43613103 H
atom_frac       1.18860357      0.66823672      0.87099224 H
atom_frac       0.93003156      0.11854873      0.38709211 H
atom_frac       0.36293054      0.21080269      0.59008213 H
atom_frac       0.83684028      1.02492627      0.63969818 H
atom_frac       0.30377965      0.56587657      0.85224632 H
atom_frac       0.22906635      0.28463647      0.50562595 H
atom_frac      -0.17335374      0.34836085      0.11375678 H
atom_frac       0.02150133      0.71130233      0.57162265 H
atom_frac       0.66905926      0.80654851      0.38458102 H
atom_frac       0.25351828     -0.06329873      0.37662251 H
atom_frac       0.54744778      0.34691833      0.06263625 H
atom_frac       0.80638771      0.62946614      0.26170087 H
atom_frac       1.25528412      0.80775326      0.97753432 H
atom_frac       0.95442574      0.25899823      0.37872565 H
atom_frac       0.36773289      0.18280941      0.80228515 H
atom_frac       0.77401227      1.09149472      0.77316332 H
atom_frac       0.45222088      0.63800060      0.92399370 H
atom_frac       0.16399995      0.33211032      0.66696962 H
atom_frac      -0.22663446      0.20848472      0.01717751 H
atom_frac       0.07573827      0.77816398      0.77947455 H
atom_frac       0.64342424      0.82724434      0.17420744 H
atom_frac       0.17455347     -0.13574741      0.58873645 N
atom_frac      -0.34922292      0.26650778      0.03854781 N
atom_frac       0.72966895      0.72986913      0.19924657 N
atom_frac       0.36308347      0.73267666      0.94907853 N
atom_frac       0.86971589      0.18545081      0.58682101 N
atom_frac       0.25789237      0.25199772      0.74767813 N
atom_frac       0.64843472      0.19559131      0.35567821 O
atom_frac       0.78234734      0.42878021      0.36518758 O
atom_frac       0.52942083      0.32289625      0.39492553 O
atom_frac       0.81993234      0.35159445      0.63252060 O
atom_frac       0.58514279      0.21344610      0.66373004 O
atom_frac       0.65836273      0.45897088      0.65331925 O
atom_frac       0.35524836      0.81321089      0.61291916 O
atom_frac       0.22873348      0.58635563      0.61397486 O
atom_frac       0.46690936      0.68644953      0.59173842 O
atom_frac       0.19330398      0.64744976      0.34269340 O
atom_frac       0.42193912      0.79485809      0.31531548 O
atom_frac       0.35093373      0.56028220      0.33568258 O
# 
# What follows is the current estimated Hessian matrix constructed by the BFGS algorithm.
# This is NOT the true Hessian matrix of the system.
# If you do not want this information here, switch it off using the "hessian_to_restart_geometry" keyword.
# 
trust_radius             0.1000000015
hessian_file
