# 
# This is the geometry file that corresponds to the current relaxation step.
# If you do not want this file to be written, set the "write_restart_geometry" flag to .false.
#  aims_uuid : 6080EB03-6A7B-491A-A71A-6C2259A4383A                                
# 
lattice_vector     11.44057932     -6.28898809     -0.31059128
lattice_vector      0.32476398     13.52027157     -0.31243895
lattice_vector     -0.31361580     -0.56856663      7.98502294
atom_frac       0.17301176     -0.07430819      0.37646464 C
atom_frac       0.64187982      0.37011817      0.03147565 C
atom_frac       0.74550819      0.65208844      0.32557915 C
atom_frac       1.23864177      0.72774898      0.98908431 C
atom_frac       0.93094006      0.17074498      0.38658478 C
atom_frac       0.36304346      0.24356317      0.72935647 C
atom_frac       0.82698605      1.07426122      0.62347084 C
atom_frac       0.35810838      0.62982560      0.96848825 C
atom_frac       0.25448119      0.34785848      0.67438738 C
atom_frac      -0.23865453      0.27219383      0.01087833 C
atom_frac       0.06905852      0.82920729      0.61335075 C
atom_frac       0.63694376      0.75638130      0.27060779 C
atom_frac       0.53495977     -0.01024568      0.34061707 C
atom_frac      -0.01714516      0.53522434      0.34800202 C
atom_frac       0.43185484      0.42871308      0.35931548 C
atom_frac       0.01713065      0.46471836      0.65196144 C
atom_frac       0.46502693      0.01019055      0.65934679 C
atom_frac       0.56813366      0.57123070      0.64064818 C
atom_frac       0.57156518      0.09614129      0.42701736 C
atom_frac       0.88777368      0.46212649      0.42691985 C
atom_frac       0.51423043      0.40686291      0.43905292 C
atom_frac       0.90538749      0.42743832      0.58025079 C
atom_frac       0.53797140      0.10706858      0.59012735 C
atom_frac       0.58184255      0.47780073      0.58305840 C
atom_frac       0.42842157      0.90380345      0.57294666 C
atom_frac       0.11221197      0.53781641      0.57304383 C
atom_frac       0.48575764      0.59308073      0.56091125 C
atom_frac       0.09459818      0.57250466      0.41971282 C
atom_frac       0.46201536      0.89287619      0.40983649 C
atom_frac       0.41814543      0.52214275      0.41690567 C
atom_frac       0.57964759     -0.02046065      0.14119700 Cl
atom_frac      -0.03594526      0.57774687      0.15791114 Cl
atom_frac       0.33704266      0.33108487      0.19827712 Cl
atom_frac       0.03592948      0.42219509      0.84205226 Cl
atom_frac       0.42033951      0.02040666      0.85876689 Cl
atom_frac       0.66294836      0.66885910      0.80168429 Cl
atom_frac       0.66751778      0.32548199      0.51929868 V
atom_frac       0.33246893      0.67446154      0.48066541 V
atom_frac       0.10805110     -0.00874090      0.56747247 H
atom_frac      -0.37456275      0.23628719      0.15780899 H
atom_frac       0.81413356      0.81464467      0.26485081 H
atom_frac       0.37455044      0.76365629      0.84215447 H
atom_frac       0.89194392      0.00869195      0.43246175 H
atom_frac       0.18585277      0.18529831      0.73509930 H
atom_frac       0.00681458     -0.10659896      0.43254349 H
atom_frac      -0.41218998      0.20492439     -0.04914516 H
atom_frac       0.73307999      0.71472284      0.10612973 H
atom_frac       0.41217732      0.79501941      1.04910856 H
atom_frac       0.99318192      0.10654857      0.56739075 H
atom_frac       0.26690025      0.28521431      0.89383090 H
atom_frac       0.14732671     -0.15494640      0.30278346 H
atom_frac       0.65930514      0.39393434     -0.09465989 H
atom_frac       0.66508257      0.57447380      0.30432962 H
atom_frac       1.21481030      0.69905549      1.11132723 H
atom_frac       0.96194591      0.25283555      0.45861411 H
atom_frac       0.44276795      0.32037649      0.76354533 H
atom_frac       0.85267388      1.15489907      0.69715483 H
atom_frac       0.34068276      0.60600934      1.09462370 H
atom_frac       0.33490744      0.42547215      0.69564330 H
atom_frac      -0.21482231      0.30088904     -0.11136346 H
atom_frac       0.03805494      0.74711685      0.54132203 H
atom_frac       0.55721837      0.67956738      0.23642773 H
atom_frac       0.25661442     -0.04657901      0.44423426 H
atom_frac       0.70618502      0.43243837      0.12491606 H
atom_frac       0.76077457      0.68306980      0.45887765 H
atom_frac       1.17709925      0.66845933      0.88987934 H
atom_frac       0.84873913      0.14810159      0.31835042 H
atom_frac       0.35760876      0.21814332      0.59517766 H
atom_frac       0.74338395      1.04653576      0.55570194 H
atom_frac       0.29380348      0.56750526      0.87504766 H
atom_frac       0.23921730      0.31688144      0.54108740 H
atom_frac      -0.17711199      0.33148179      0.11008477 H
atom_frac       0.15125960      0.85185266      0.68158636 H
atom_frac       0.64238337      0.78180628      0.40478574 H
atom_frac       0.17775486     -0.01239053      0.29535764 H
atom_frac       0.55630763      0.35729267      0.06186268 H
atom_frac       0.81688152      0.63843640      0.28309479 H
atom_frac       1.24426607      0.81019181      0.98461894 H
atom_frac       0.99420859      0.17194499      0.29966260 H
atom_frac       0.36052668      0.17756225      0.79910987 H
atom_frac       0.82224027      1.01234125      0.70457503 H
atom_frac       0.44368077      0.64265139      0.93810189 H
atom_frac       0.18310770      0.36151035      0.71687133 H
atom_frac      -0.24427987      0.18975030      0.01534008 H
atom_frac       0.00578885      0.82800580      0.70027179 H
atom_frac       0.63945764      0.82237910      0.20084943 H
atom_frac       0.08614076     -0.08696549      0.49784541 N
atom_frac      -0.35336081      0.26374807      0.04100863 N
atom_frac       0.73665623      0.73701156      0.23243721 N
atom_frac       0.35334844      0.73619541      0.95895481 N
atom_frac       0.91385607      0.08691686      0.50208912 N
atom_frac       0.26332921      0.26293092      0.76752290 N
atom_frac       0.63918868      0.19166563      0.36820525 O
atom_frac       0.77820473      0.41765510      0.36990056 O
atom_frac       0.53792288      0.32409465      0.39256123 O
atom_frac       0.80919168      0.35780227      0.64261884 O
atom_frac       0.58074428      0.21091566      0.66573496 O
atom_frac       0.65468686      0.44720341      0.64900491 O
atom_frac       0.36079850      0.80827899      0.63175888 O
atom_frac       0.22178091      0.58228770      0.63006331 O
atom_frac       0.46206478      0.67584877      0.60740296 O
atom_frac       0.19079410      0.64214089      0.35734509 O
atom_frac       0.41924275      0.78902907      0.33422910 O
atom_frac       0.34530092      0.55273993      0.35095920 O
# 
# What follows is the current estimated Hessian matrix constructed by the BFGS algorithm.
# This is NOT the true Hessian matrix of the system.
# If you do not want this information here, switch it off using the "hessian_to_restart_geometry" keyword.
# 
trust_radius             0.8000000119
hessian_file
