lattice_vector     13.88369313     -0.23050042      0.04952606
lattice_vector     -6.73696000     11.68483249     -0.20285649
lattice_vector      0.79756024     -0.76746231      8.29435420
atom_frac       0.31991110     -0.26840458      0.00388720 C
atom_frac       0.72175216      0.47001047      1.00127782 C
atom_frac       0.68006967      1.26838903      0.99612473 C
atom_frac       0.27817620      0.52995061     -0.00130985 C
atom_frac       0.55179005     -0.00742187      0.34927391 C
atom_frac       1.00331758      0.53820109      0.35178001 C
atom_frac       0.46676586      0.44664106      0.34313824 C
atom_frac      -0.00333115      0.46182174      0.64820738 C
atom_frac       0.44820468      1.00744450      0.65072397 C
atom_frac       0.53321817      0.55337745      0.65685091 C
atom_frac       0.57823618      0.10156111      0.42884457 C
atom_frac       0.89991621      0.47146187      0.43029982 C
atom_frac       0.53548134      0.42399304      0.42433971 C
atom_frac       0.89638016      0.43391565      0.58069038 C
atom_frac       0.52575205      0.10856317      0.58055920 C
atom_frac       0.56960811      0.47822931      0.58191483 C
atom_frac       0.42175756      0.89846138      0.57115189 C
atom_frac       0.10006982      0.52856109      0.56968820 C
atom_frac       0.46450339      0.57602614      0.57564818 C
atom_frac       0.10360671      0.56610882      0.41929838 C
atom_frac       0.47424250      0.89145921      0.41943770 C
atom_frac       0.43037859      0.52179243      0.41807163 C
atom_frac       0.61448960     -0.01743001      0.16213623 Cl
atom_frac       1.00638628      0.58153499      0.16570483 Cl
atom_frac       0.42886647      0.38387485      0.14714269 Cl
atom_frac      -0.00640314      0.41848285      0.83427970 Cl
atom_frac       0.38550226      1.01745252      0.83785758 Cl
atom_frac       0.57110500      0.61613344      0.85285335 Cl
atom_frac       0.66851257      0.33951006      0.52126733 Ti
initial_moment 1.0
atom_frac       0.33147487      0.66051224      0.47872558 Ti
atom_frac       0.76072921      0.40460314      1.18141480 H
atom_frac       0.37210757      0.64293137     -0.17822788 H
atom_frac       0.39207363     -0.23550244      0.08112583 H
atom_frac       0.65230270      0.44312889      0.92156842 H
atom_frac       0.60790733      1.23547278      0.91888085 H
atom_frac       0.34760065      0.55680783      0.07843683 H
atom_frac       0.24514475     -0.28930928      0.08294966 H
atom_frac       0.79774045      0.49122244      0.92515039 H
atom_frac       0.75484065      1.28929784      0.91707030 H
atom_frac       0.20216875      0.50873040      0.07477475 H
atom_frac       0.33490853     -0.20427661     -0.07742108 H
atom_frac       0.73411351      0.54586274      1.08488497 H
atom_frac       0.66507894      1.20427193      1.07744831 H
atom_frac       0.26582481      0.45411083     -0.08493722 H
atom_frac       0.30259175      0.62477694     -0.09580060 N
atom_frac       0.69737464      0.37520954      1.09579292 N
atom_frac       0.65167131      0.20355709      0.37623759 O
atom_frac       0.79984502      0.43939127      0.37557653 O
atom_frac       0.57288409      0.35197421      0.36579745 O
initial_moment -1.0
atom_frac       0.79403656      0.37211909      0.64650082 O
initial_moment -1.0
atom_frac       0.55646658      0.21658355      0.64417006 O
atom_frac       0.63737466      0.45312650      0.64614980 O
atom_frac       0.34831976      0.79646557      0.62375559 O
atom_frac       0.20014046      0.56063053      0.62441137 O
atom_frac       0.42709606      0.64803950      0.63419824 O
atom_frac       0.20595153      0.62790744      0.35349276 O
atom_frac       0.44352603      0.78343865      0.35582648 O
atom_frac       0.36261158      0.54689507      0.35383810 O
