lattice_vector     11.44057932     -6.28898809     -0.31059128
lattice_vector      0.32476398     13.52027157     -0.31243895
lattice_vector     -0.31361580     -0.56856663      7.98502294
atom_frac       0.16702187     -0.11833925      0.40768685 C
atom_frac       0.63518672      0.36833759      0.03245868 C
atom_frac       0.74348324      0.65376601      0.31152214 C
atom_frac       1.24880795      0.72423020      0.97563096 C
atom_frac       0.89284707      0.17665359      0.40711197 C
atom_frac       0.36234994      0.23962617      0.71784171 C
atom_frac       0.79333330      1.07686635      0.64333712 C
atom_frac       0.36604203      0.62382635      0.95230069 C
atom_frac       0.24002044      0.32449582      0.63312902 C
atom_frac      -0.23137705      0.28624993      0.01193543 C
atom_frac       0.06229499      0.79247511      0.64945646 C
atom_frac       0.64570392      0.76849539      0.25892857 C
atom_frac       0.53937647     -0.00416974      0.32948078 C
atom_frac      -0.01409423      0.54188527      0.34348757 C
atom_frac       0.43500301      0.43524702      0.35541942 C
atom_frac       0.02467760      0.46853553      0.63935692 C
atom_frac       0.46763751      0.01490715      0.64470468 C
atom_frac       0.57078389      0.57959117      0.63320207 C
atom_frac       0.57708370      0.10260946      0.41523546 C
atom_frac       0.89093288      0.46916473      0.42320863 C
atom_frac       0.51420278      0.41096565      0.43864728 C
atom_frac       0.91191446      0.43012003      0.57188790 C
atom_frac       0.54186351      0.11269931      0.57986892 C
atom_frac       0.58462829      0.48525610      0.58179419 C
atom_frac       0.42992365      0.90885699      0.55665744 C
atom_frac       0.11896270      0.54212340      0.55975752 C
atom_frac       0.48913729      0.60195590      0.55167577 C
atom_frac       0.09874896      0.57713070      0.40885557 C
atom_frac       0.46500468      0.89805506      0.39595053 C
atom_frac       0.42239189      0.52993374      0.40890001 C
atom_frac       0.58499935     -0.01484534      0.13005918 Cl
atom_frac      -0.03454338      0.58607012      0.15473878 Cl
atom_frac       0.34086235      0.33857224      0.19247722 Cl
atom_frac       0.04744315      0.42416973      0.82712006 Cl
atom_frac       0.42366922      0.02294704      0.84599990 Cl
atom_frac       0.66918022      0.68142676      0.78891519 Cl
atom_frac       0.66824879      0.33337310      0.51545589 V
initial_moment 1.0
atom_frac       0.33624046      0.68005598      0.46327102 V
initial_moment -1.0
atom_frac       0.23419585     -0.16625828      0.60403770 H
atom_frac      -0.37037470      0.23573126      0.15434161 H
atom_frac       0.80925143      0.79890028      0.19772046 H
atom_frac       0.38898253      0.76235259      0.83655051 H
atom_frac       0.94674278      0.22029849      0.65785404 H
atom_frac       0.18367531      0.17117749      0.72636638 H
atom_frac       0.20915100     -0.05794713      0.65715126 H
atom_frac      -0.40451045      0.20786902     -0.05592186 H
atom_frac       0.70568616      0.69189696      0.08066274 H
atom_frac       0.41986197      0.78767671      1.04611417 H
atom_frac       0.83766449      0.24656200      0.60850570 H
atom_frac       0.25940277      0.28158367      0.86764975 H
atom_frac       0.11438398     -0.07567610      0.39401176 H
atom_frac       0.65183983      0.39503768     -0.09239939 H
atom_frac       0.65984922      0.58072986      0.31289113 H
atom_frac       1.22112592      0.69187277      1.09471249 H
atom_frac       0.81179569      0.14817613      0.33192663 H
atom_frac       0.43754242      0.32087494      0.74816183 H
atom_frac       0.71279499      1.03705550      0.56402285 H
atom_frac       0.34523378      0.59594509      1.07579426 H
atom_frac       0.31619513      0.40592298      0.64798337 H
atom_frac      -0.20811136      0.31688692     -0.10937384 H
atom_frac       0.00629620      0.83182473      0.63814713 H
atom_frac       0.56080960      0.69632634      0.25199724 H
atom_frac       0.12923201     -0.19965706      0.33211437 H
atom_frac       0.69583651      0.43159522      0.12870689 H
atom_frac       0.77141469      0.69717927      0.43842704 H
atom_frac       1.18945321      0.66848534      0.87164582 H
atom_frac       0.92878041      0.11843043      0.38442524 H
atom_frac       0.36106637      0.20986147      0.58654363 H
atom_frac       0.83688410      1.02456165      0.63701866 H
atom_frac       0.30342092      0.56494245      0.85375823 H
atom_frac       0.22827165      0.28608118      0.50386347 H
atom_frac      -0.17432635      0.34754518      0.11316422 H
atom_frac       0.02485571      0.71005424      0.57657158 H
atom_frac       0.67006580      0.80644785      0.38887697 H
atom_frac       0.25403086     -0.06660649      0.37218135 H
atom_frac       0.54743128      0.34818488      0.06182374 H
atom_frac       0.80628535      0.62892985      0.26320991 H
atom_frac       1.25686431      0.80805263      0.97781989 H
atom_frac       0.95429940      0.25932494      0.37784503 H
atom_frac       0.36496262      0.18046972      0.79820623 H
atom_frac       0.77513301      1.09113651      0.77255680 H
atom_frac       0.45200335      0.63646297      0.92468525 H
atom_frac       0.16486247      0.33433619      0.66678160 H
atom_frac      -0.22870346      0.20738248      0.01714222 H
atom_frac       0.07596754      0.78506679      0.78119670 H
atom_frac       0.64511518      0.82883209      0.17921357 H
atom_frac       0.17478421     -0.13501522      0.58633304 N
atom_frac      -0.35023144      0.26669987      0.03843770 N
atom_frac       0.73052817      0.73049535      0.20232099 N
atom_frac       0.36379620      0.73200880      0.94984804 N
atom_frac       0.87004563      0.18546830      0.58597967 N
atom_frac       0.25647072      0.25131760      0.74471850 N
atom_frac       0.64803881      0.19552261      0.35572042 O
atom_frac       0.78255995      0.42863317      0.36535993 O
atom_frac       0.52982101      0.32339675      0.39484805 O
initial_moment 2.0
atom_frac       0.81993972      0.35137866      0.63283975 O
initial_moment 1.0
atom_frac       0.58485634      0.21363200      0.66379175 O
atom_frac       0.65860327      0.45901324      0.65372385 O
atom_frac       0.35504217      0.81347274      0.61375510 O
initial_moment -1.0
atom_frac       0.22874146      0.58655454      0.61518971 O
atom_frac       0.46685032      0.68649321      0.59363019 O
atom_frac       0.19349999      0.64733358      0.34358602 O
atom_frac       0.42214208      0.79479441      0.31662088 O
atom_frac       0.35128066      0.56073594      0.33693981 O
