# 
# This is the geometry file that corresponds to the current relaxation step.
# If you do not want this file to be written, set the "write_restart_geometry" flag to .false.
#  aims_uuid : 344E2087-1874-46FB-A414-5E5ECD2C7339                                
# 
lattice_vector     11.44057932     -6.28898809     -0.31059128
lattice_vector      0.32476398     13.52027157     -0.31243895
lattice_vector     -0.31361580     -0.56856663      7.98502294
atom_frac       0.16778602     -0.11798011      0.40827356 C
atom_frac       0.63505841      0.36818096      0.03282178 C
atom_frac       0.74400692      0.65398444      0.31098639 C
atom_frac       1.24804490      0.72404103      0.97526298 C
atom_frac       0.89294880      0.17664438      0.40763997 C
atom_frac       0.36269169      0.23994305      0.71852550 C
atom_frac       0.79364442      1.07690382      0.64408996 C
atom_frac       0.36562384      0.62403811      0.95202700 C
atom_frac       0.23987189      0.32441437      0.63430697 C
atom_frac      -0.23087090      0.28681897      0.01226177 C
atom_frac       0.06224934      0.79280181      0.64917715 C
atom_frac       0.64589627      0.76858506      0.25836290 C
atom_frac       0.53944820     -0.00427922      0.32930237 C
atom_frac      -0.01435815      0.54151085      0.34297439 C
atom_frac       0.43475682      0.43494426      0.35511967 C
atom_frac       0.02450109      0.46817999      0.63880521 C
atom_frac       0.46774899      0.01464213      0.64463661 C
atom_frac       0.57068492      0.57959242      0.63255906 C
atom_frac       0.57723553      0.10247458      0.41525558 C
atom_frac       0.89067733      0.46885564      0.42283455 C
atom_frac       0.51402494      0.41079689      0.43843927 C
atom_frac       0.91170384      0.42982877      0.57148506 C
atom_frac       0.54200226      0.11248244      0.57988111 C
atom_frac       0.58451518      0.48521694      0.58141753 C
atom_frac       0.42996727      0.90863199      0.55640266 C
atom_frac       0.11879377      0.54171683      0.55916481 C
atom_frac       0.48900892      0.60185577      0.55091227 C
atom_frac       0.09848493      0.57669732      0.40827825 C
atom_frac       0.46493538      0.89792250      0.39556978 C
atom_frac       0.42216705      0.52968103      0.40829792 C
atom_frac       0.58488859     -0.01483261      0.12972645 Cl
atom_frac      -0.03483572      0.58573008      0.15428677 Cl
atom_frac       0.34043170      0.33796969      0.19256886 Cl
atom_frac       0.04717586      0.42403199      0.82676060 Cl
atom_frac       0.42359737      0.02265521      0.84584730 Cl
atom_frac       0.66897757      0.68148956      0.78829241 Cl
atom_frac       0.66803029      0.33322628      0.51550642 V
atom_frac       0.33599765      0.67985883      0.46257459 V
atom_frac       0.23450218     -0.16635742      0.60456756 H
atom_frac      -0.36998039      0.23571807      0.15451990 H
atom_frac       0.80939917      0.79898614      0.19695559 H
atom_frac       0.38838581      0.76258126      0.83639973 H
atom_frac       0.94661025      0.22090063      0.65850938 H
atom_frac       0.18404674      0.17107428      0.72740124 H
atom_frac       0.20951456     -0.05793356      0.65786625 H
atom_frac      -0.40398634      0.20789758     -0.05574511 H
atom_frac       0.70580644      0.69184144      0.08011054 H
atom_frac       0.41904154      0.78772503      1.04611322 H
atom_frac       0.83719833      0.24627241      0.60841284 H
atom_frac       0.25964381      0.28154120      0.86871462 H
atom_frac       0.11425873     -0.07626298      0.39413934 H
atom_frac       0.65152176      0.39490698     -0.09203814 H
atom_frac       0.66056478      0.58068853      0.31235654 H
atom_frac       1.22030915      0.69147233      1.09419955 H
atom_frac       0.81186450      0.14789052      0.33233738 H
atom_frac       0.43776059      0.32132575      0.74861643 H
atom_frac       0.71299279      1.03682189      0.56495701 H
atom_frac       0.34469523      0.59606029      1.07543328 H
atom_frac       0.31575423      0.40606462      0.64948595 H
atom_frac      -0.20751249      0.31797686     -0.10869600 H
atom_frac       0.00866426      0.83511047      0.64425322 H
atom_frac       0.56100278      0.69642388      0.25166743 H
atom_frac       0.13095196     -0.19917260      0.33243329 H
atom_frac       0.69564064      0.43152742      0.12902790 H
atom_frac       0.77190281      0.69741815      0.43789310 H
atom_frac       1.18879225      0.66833151      0.87114927 H
atom_frac       0.92918516      0.11865084      0.38501611 H
atom_frac       0.36124666      0.21007957      0.58722532 H
atom_frac       0.83734563      1.02473663      0.63786605 H
atom_frac       0.30319960      0.56512689      0.85332254 H
atom_frac       0.22847920      0.28627256      0.50493573 H
atom_frac      -0.17404176      0.34778649      0.11396119 H
atom_frac       0.02221769      0.71205746      0.57157308 H
atom_frac       0.67038620      0.80673347      0.38824030 H
atom_frac       0.25473300     -0.06534831      0.37347177 H
atom_frac       0.54726715      0.34772299      0.06239549 H
atom_frac       0.80705710      0.62952929      0.26256540 H
atom_frac       1.25587943      0.80779812      0.97779311 H
atom_frac       0.95413126      0.25939949      0.37824031 H
atom_frac       0.36562664      0.18092873      0.79890725 H
atom_frac       0.77546944      1.09127068      0.77328709 H
atom_frac       0.45171303      0.63689110      0.92478035 H
atom_frac       0.16440092      0.33371997      0.66781221 H
atom_frac      -0.22794834      0.20799622      0.01660281 H
atom_frac       0.07584223      0.78102531      0.77870470 H
atom_frac       0.64528450      0.82881796      0.17843078 H
atom_frac       0.17513806     -0.13499899      0.58686394 N
atom_frac      -0.34987867      0.26678332      0.03867190 N
atom_frac       0.73071470      0.73054904      0.20174741 N
atom_frac       0.36314320      0.73211550      0.94962435 N
atom_frac       0.86998356      0.18546951      0.58637965 N
atom_frac       0.25666874      0.25132928      0.74570655 N
atom_frac       0.64812344      0.19541892      0.35579350 O
atom_frac       0.78225452      0.42841942      0.36523702 O
atom_frac       0.52957417      0.32311582      0.39492478 O
atom_frac       0.81974986      0.35127314      0.63271236 O
atom_frac       0.58488931      0.21341173      0.66387007 O
atom_frac       0.65845919      0.45902542      0.65354768 O
atom_frac       0.35500479      0.81317901      0.61332815 O
atom_frac       0.22853967      0.58622850      0.61462412 O
atom_frac       0.46673305      0.68639572      0.59268230 O
atom_frac       0.19322830      0.64704125      0.34305753 O
atom_frac       0.42179201      0.79471914      0.31587256 O
atom_frac       0.35100246      0.56041767      0.33634500 O
# 
# What follows is the current estimated Hessian matrix constructed by the BFGS algorithm.
# This is NOT the true Hessian matrix of the system.
# If you do not want this information here, switch it off using the "hessian_to_restart_geometry" keyword.
# 
trust_radius             0.2000000030
hessian_file
