lattice_vector     11.44057932     -6.28898809     -0.31059128
lattice_vector      0.32476398     13.52027157     -0.31243895
lattice_vector     -0.31361580     -0.56856663      7.98502294
atom_frac       0.17739679     -0.08190479      0.37286657 C
atom_frac       0.64057723      0.37065313      0.03153839 C
atom_frac       0.75068716      0.65709965      0.32915401 C
atom_frac       1.23955121      0.72686804      0.98877065 C
atom_frac       0.92211150      0.17625144      0.38383720 C
atom_frac       0.35769057      0.23763349      0.72162118 C
atom_frac       0.82259304      1.08185307      0.62708072 C
atom_frac       0.35941140      0.62929160      0.96842162 C
atom_frac       0.24930382      0.34284739      0.67081116 C
atom_frac      -0.23956180      0.27307751      0.01119068 C
atom_frac       0.07787895      0.82369583      0.61610991 C
atom_frac       0.64229733      0.76230950      0.27833580 C
atom_frac       0.53487378     -0.01021048      0.34057115 C
atom_frac      -0.01713199      0.53508355      0.34772408 C
atom_frac       0.43232168      0.42907332      0.35855567 C
atom_frac       0.01712089      0.46486243      0.65223631 C
atom_frac       0.46511689      0.01015650      0.65938864 C
atom_frac       0.56766823      0.57087190      0.64140514 C
atom_frac       0.57131333      0.09618055      0.42683201 C
atom_frac       0.88778358      0.46235004      0.42699346 C
atom_frac       0.51458975      0.40716320      0.43846316 C
atom_frac       0.90537512      0.42771834      0.58058612 C
atom_frac       0.53771612      0.10709358      0.59002947 C
atom_frac       0.58181969      0.47779378      0.58317745 C
atom_frac       0.42867722      0.90376545      0.57312771 C
atom_frac       0.11220536      0.53759590      0.57296694 C
atom_frac       0.48539995      0.59278191      0.56149783 C
atom_frac       0.09461391      0.57222778      0.41937423 C
atom_frac       0.46227439      0.89285235      0.40993020 C
atom_frac       0.41817011      0.52215136      0.41678344 C
atom_frac       0.57956214     -0.02036914      0.14110957 Cl
atom_frac      -0.03597027      0.57737935      0.15753839 Cl
atom_frac       0.33804563      0.33190861      0.19657823 Cl
atom_frac       0.03595808      0.42256585      0.84242186 Cl
atom_frac       0.42042906      0.02031553      0.85885042 Cl
atom_frac       0.66194550      0.66803716      0.80338122 Cl
atom_frac       0.66746020      0.32551709      0.51919333 V
initial_moment 2.0
atom_frac       0.33252956      0.67442838      0.48076720 V
initial_moment 2.0
atom_frac       0.11480947     -0.01557543      0.56639985 H
atom_frac      -0.37607383      0.23649364      0.15706271 H
atom_frac       0.81818291      0.81823465      0.26363413 H
atom_frac       0.37606429      0.76345269      0.84290043 H
atom_frac       0.88517805      0.01552195      0.43354652 H
atom_frac       0.18180466      0.18170892      0.73631808 H
atom_frac       0.01346290     -0.11217709      0.43754602 H
atom_frac      -0.41293515      0.20569437     -0.05014275 H
atom_frac       0.73474864      0.71825948      0.10966938 H
atom_frac       0.41292410      0.79424980      1.05010667 H
atom_frac       0.98652604      0.11212236      0.56239994 H
atom_frac       0.26523722      0.28167911      0.89028958 H
atom_frac       0.15305369     -0.16373809      0.30430709 H
atom_frac       0.65846853      0.39491387     -0.09430676 H
atom_frac       0.67001942      0.57966862      0.30863747 H
atom_frac       1.21526977      0.69756910      1.11054854 H
atom_frac       0.95907496      0.25958335      0.45340081 H
atom_frac       0.43780360      0.31430240      0.75436841 H
atom_frac       0.84693486      1.16368745      0.69563558 H
atom_frac       0.34152185      0.60503101      1.09426715 H
atom_frac       0.32997454      0.42027562      0.69132542 H
atom_frac      -0.21528164      0.30237458     -0.11058857 H
atom_frac       0.04091584      0.74036371      0.54654696 H
atom_frac       0.56218436      0.68563977      0.24559360 H
atom_frac       0.26301850     -0.04943428      0.43654554 H
atom_frac       0.70450489      0.43280874      0.12558356 H
atom_frac       0.76686685      0.68829115      0.46235675 H
atom_frac       1.17841769      0.66791573      0.88890913 H
atom_frac       0.83831473      0.15619055      0.32355418 H
atom_frac       0.35032265      0.21219188      0.58715870 H
atom_frac       0.73697056      1.04937945      0.56340270 H
atom_frac       0.29548228      0.56713631      0.87437778 H
atom_frac       0.23311909      0.31165726      0.53760781 H
atom_frac      -0.17842770      0.33203144      0.11105024 H
atom_frac       0.16167616      0.84375753      0.67639236 H
atom_frac       0.64966701      0.78775494      0.41279729 H
atom_frac       0.17581981     -0.02407087      0.28806950 H
atom_frac       0.55479672      0.35754105      0.06121894 H
atom_frac       0.82154639      0.64315824      0.28503390 H
atom_frac       1.24507964      0.80932797      0.98506966 H
atom_frac       0.97991773      0.17192367      0.29073728 H
atom_frac       0.35586836      0.17164127      0.79075141 H
atom_frac       0.82417245      1.02402224      0.71188188 H
atom_frac       0.44519111      0.64240290      0.93873770 H
atom_frac       0.17844876      0.35679315      0.71493867 H
atom_frac      -0.24508954      0.19061808      0.01489454 H
atom_frac       0.02007295      0.82802346      0.70921040 H
atom_frac       0.64411786      0.82829920      0.20920096 H
atom_frac       0.09311790     -0.09363879      0.49876039 N
atom_frac      -0.35448868      0.26431805      0.04062088 N
atom_frac       0.74103126      0.74191792      0.23610340 N
atom_frac       0.35447810      0.73562728      0.95934132 N
atom_frac       0.90687119      0.09358549      0.50118624 N
atom_frac       0.25895660      0.25802477      0.76385468 N
atom_frac       0.63915196      0.19159038      0.36803198 O
atom_frac       0.77834097      0.41809976      0.36999238 O
atom_frac       0.53820494      0.32440913      0.39202815 O
initial_moment -1.0
atom_frac       0.80931481      0.35795882      0.64272490 O
initial_moment -1.0
atom_frac       0.58028308      0.21085605      0.66570932 O
atom_frac       0.65454856      0.44722255      0.64922679 O
atom_frac       0.36083876      0.80835566      0.63192800 O
initial_moment 0.0
atom_frac       0.22164799      0.58184579      0.62996790 O
atom_frac       0.46178469      0.67553596      0.60793279 O
atom_frac       0.19067431      0.64198712      0.35723559 O
atom_frac       0.41970735      0.78908980      0.33425049 O
atom_frac       0.34544145      0.55272284      0.35073383 O
