# 
# This is the geometry file that corresponds to the current relaxation step.
# If you do not want this file to be written, set the "write_restart_geometry" flag to .false.
#  aims_uuid : E17F7927-B430-4314-A690-C9DE53CB76A7                                
# 
lattice_vector     11.44057932     -6.28898809     -0.31059128
lattice_vector      0.32476398     13.52027157     -0.31243895
lattice_vector     -0.31361580     -0.56856663      7.98502294
atom_frac       0.18146586     -0.11459665      0.35260971 C
atom_frac       0.63598224      0.36055657      0.04992866 C
atom_frac       0.73201319      0.64823741      0.31618320 C
atom_frac       1.22965625      0.72031600      0.97515209 C
atom_frac       0.90350553      0.18455407      0.38387152 C
atom_frac       0.37722670      0.25036895      0.75300116 C
atom_frac       0.81846854      1.11470167      0.64866511 C
atom_frac       0.36400258      0.63937740      0.94971811 C
atom_frac       0.26773649      0.35147941      0.68315450 C
atom_frac      -0.22951642      0.27978241      0.02472894 C
atom_frac       0.09620248      0.81539042      0.61718876 C
atom_frac       0.62250500      0.74932402      0.24626521 C
atom_frac       0.53865260     -0.00805640      0.34488057 C
atom_frac      -0.02180544      0.53723333      0.35124408 C
atom_frac       0.43183669      0.42543350      0.36510474 C
atom_frac       0.02186007      0.46290164      0.64849908 C
atom_frac       0.46164342      0.00810038      0.65490630 C
atom_frac       0.56815044      0.57454651      0.63458344 C
atom_frac       0.57938641      0.09847514      0.43429863 C
atom_frac       0.88538215      0.46561994      0.43491737 C
atom_frac       0.51106013      0.40245644      0.45166946 C
atom_frac       0.90792265      0.42761596      0.58775822 C
atom_frac       0.54127002      0.10657477      0.59583618 C
atom_frac       0.58056452      0.47838176      0.59156671 C
atom_frac       0.42084675      0.90157727      0.56544354 C
atom_frac       0.11467144      0.53449677      0.56480660 C
atom_frac       0.48893204      0.59752928      0.54803125 C
atom_frac       0.09213029      0.57250559      0.41197388 C
atom_frac       0.45897471      0.89347101      0.40391264 C
atom_frac       0.41941833      0.52159866      0.40814448 C
atom_frac       0.58480066     -0.01593169      0.14398314 Cl
atom_frac      -0.04536051      0.58196764      0.16498176 Cl
atom_frac       0.33304319      0.32150002      0.21161365 Cl
atom_frac       0.04542612      0.41819371      0.83477854 Cl
atom_frac       0.41553097      0.01596786      0.85583284 Cl
atom_frac       0.66700554      0.67851332      0.78798631 Cl
atom_frac       0.66374990      0.32585684      0.53772193 V
atom_frac       0.33630881      0.67419913      0.46196993 V
atom_frac       0.25160941     -0.04749861      0.59339299 H
atom_frac      -0.36542559      0.23053197      0.17419870 H
atom_frac       0.79391301      0.79589838      0.21056363 H
atom_frac       0.36548874      0.76945906      0.82552594 H
atom_frac       0.74902897      0.04642944      0.40795633 H
atom_frac       0.20564683      0.20347722      0.78789450 H
atom_frac       0.13687787     -0.02969310      0.54211311 H
atom_frac      -0.40354942      0.19943311     -0.03480403 H
atom_frac       0.70249720      0.68683820      0.08058489 H
atom_frac       0.40369987      0.80054522      1.03450604 H
atom_frac       0.86465055      0.03037160      0.46042942 H
atom_frac       0.29678215      0.31238563      0.91855155 H
atom_frac       0.09829030     -0.14098096      0.28425544 H
atom_frac       0.64994124      0.38573734     -0.07604789 H
atom_frac       0.65059914      0.57195784      0.31272379 H
atom_frac       1.20829002      0.68898428      1.09636334 H
atom_frac       0.98587218      0.23253520      0.45742893 H
atom_frac       0.45851140      0.32717574      0.77105775 H
atom_frac       0.90174062      1.14219922      0.71742888 H
atom_frac       0.35007439      0.61419676      1.07569754 H
atom_frac       0.34917880      0.42776244      0.68694203 H
atom_frac      -0.20811133      0.31112079     -0.09647221 H
atom_frac       0.01356173      0.76848963      0.54395950 H
atom_frac       0.54116022      0.67257254      0.22857994 H
atom_frac       0.20412109     -0.18279380      0.34176641 H
atom_frac       0.69781496      0.42539639      0.14319482 H
atom_frac       0.75382473      0.69130638      0.44371598 H
atom_frac       1.17054568      0.65896843      0.87559298 H
atom_frac       0.85828825      0.23422754      0.37476749 H
atom_frac       0.36426377      0.21586622      0.62144518 H
atom_frac       0.79477135      1.18220393      0.65855838 H
atom_frac       0.30210057      0.57456380      0.85649029 H
atom_frac       0.24603119      0.30861171      0.55550029 H
atom_frac      -0.17047989      0.34115500      0.12432810 H
atom_frac       0.14031336      0.76463406      0.62517512 H
atom_frac       0.63570958      0.78400329      0.37776247 H
atom_frac       0.24781391     -0.04023606      0.30655758 H
atom_frac       0.54896457      0.34016765      0.08362766 H
atom_frac       0.79995428      0.62889200      0.27437745 H
atom_frac       1.22654898      0.79924136      0.97368404 H
atom_frac       0.91734401      0.15469699      0.25973015 H
atom_frac       0.37837680      0.19089701      0.83390248 H
atom_frac       0.75268035      1.04013357      0.69503441 H
atom_frac       0.45098099      0.65968895      0.91590997 H
atom_frac       0.19977552      0.37078979      0.72497419 H
atom_frac      -0.22633645      0.20089584      0.02628129 H
atom_frac       0.08311325      0.84525892      0.74181177 H
atom_frac       0.62129364      0.80870481      0.16523291 H
atom_frac       0.17059463     -0.08626450      0.53217877 N
atom_frac      -0.34786869      0.25978825      0.05673152 N
atom_frac       0.71766046      0.72258057      0.20387336 N
atom_frac       0.34795787      0.74021078      0.94299821 N
atom_frac       0.82994934      0.08615375      0.46942403 N
atom_frac       0.28190313      0.27689771      0.79516995 N
atom_frac       0.65415707      0.19220294      0.37836027 O
atom_frac       0.77749485      0.42612141      0.38597392 O
atom_frac       0.52842402      0.31463237      0.41125025 O
atom_frac       0.81785903      0.35976270      0.65552524 O
atom_frac       0.58508940      0.20729426      0.68352590 O
atom_frac       0.65397574      0.45314045      0.66897956 O
atom_frac       0.34595255      0.80787972      0.62132871 O
atom_frac       0.22255732      0.57397950      0.61374100 O
atom_frac       0.47161391      0.68537951      0.58843898 O
atom_frac       0.18220208      0.64036495      0.34420819 O
atom_frac       0.41510895      0.79275672      0.31619855 O
atom_frac       0.34602958      0.54687168      0.33072705 O
# 
# What follows is the current estimated Hessian matrix constructed by the BFGS algorithm.
# This is NOT the true Hessian matrix of the system.
# If you do not want this information here, switch it off using the "hessian_to_restart_geometry" keyword.
# 
trust_radius             0.6474333373
hessian_file
