lattice_vector     11.44057932     -6.28898809     -0.31059128
lattice_vector      0.32476398     13.52027157     -0.31243895
lattice_vector     -0.31361580     -0.56856663      7.98502294
atom_frac       0.18078212     -0.07408880      0.33404298 C
atom_frac       0.63960735      0.35702317      0.04803310 C
atom_frac       0.72542437      0.64063451      0.31500887 C
atom_frac       1.22485966      0.72346523      0.97602930 C
atom_frac       0.90501182      0.17651399      0.42239215 C
atom_frac       0.37915860      0.25095066      0.74650345 C
atom_frac       0.81980529      1.07482998      0.66654788 C
atom_frac       0.36023493      0.64281590      0.95184928 C
atom_frac       0.27438206      0.35917569      0.68479023 C
atom_frac      -0.22494959      0.27645046      0.02392753 C
atom_frac       0.09537731      0.82367387      0.57768366 C
atom_frac       0.62051458      0.74871124      0.25309431 C
atom_frac       0.53887962     -0.00812791      0.34519337 C
atom_frac      -0.02189908      0.53852346      0.35327016 C
atom_frac       0.43192645      0.42548787      0.36554037 C
atom_frac       0.02180471      0.46140003      0.64668131 C
atom_frac       0.46108391      0.00796518      0.65468893 C
atom_frac       0.56793348      0.57428986      0.63431887 C
atom_frac       0.58031243      0.09829289      0.43468493 C
atom_frac       0.88503099      0.46586899      0.43551568 C
atom_frac       0.51082353      0.40191303      0.45212956 C
atom_frac       0.90753194      0.42650101      0.58733806 C
atom_frac       0.54142671      0.10626401      0.59598688 C
atom_frac       0.58054019      0.47802696      0.59214902 C
atom_frac       0.41965202      0.90154479      0.56520010 C
atom_frac       0.11487314      0.53403056      0.56440968 C
atom_frac       0.48904299      0.59786963      0.54773153 C
atom_frac       0.09237442      0.57340250      0.41259158 C
atom_frac       0.45853310      0.89357225      0.40389323 C
atom_frac       0.41931907      0.52175178      0.40771990 C
atom_frac       0.58625192     -0.01699672      0.14388497 Cl
atom_frac      -0.04566239      0.58493961      0.16680845 Cl
atom_frac       0.33126291      0.31977596      0.21242404 Cl
atom_frac       0.04558204      0.41502404      0.83317335 Cl
atom_frac       0.41372675      0.01683762      0.85600989 Cl
atom_frac       0.66860845      0.68000166      0.78742150 Cl
atom_frac       0.66399863      0.32519242      0.53815682 V
initial_moment 2.0
atom_frac       0.33591033      0.67463783      0.46170951 V
initial_moment 2.0
atom_frac       0.20772541     -0.00902254      0.58152615 H
atom_frac      -0.36033815      0.22850359      0.17550776 H
atom_frac       0.79088857      0.79006498      0.21398572 H
atom_frac       0.36022451      0.77135621      0.82439426 H
atom_frac       0.79296455      0.00921827      0.41935455 H
atom_frac       0.20863727      0.20940796      0.78488840 H
atom_frac       0.07512097     -0.03995036      0.50112834 H
atom_frac      -0.39974534      0.19536682     -0.03306253 H
atom_frac       0.69650555      0.68389715      0.08281835 H
atom_frac       0.39966020      0.80449220      1.03295594 H
atom_frac       0.92564885      0.04062249      0.49999453 H
atom_frac       0.30281227      0.31536793      0.91673657 H
atom_frac       0.11027841     -0.14073058      0.25265354 H
atom_frac       0.65305551      0.38129763     -0.07840341 H
atom_frac       0.64273251      0.56555378      0.30928022 H
atom_frac       1.20540920      0.69618445      1.10011327 H
atom_frac       0.97365706      0.24199365      0.50774533 H
atom_frac       0.46199692      0.32590805      0.76882725 H
atom_frac       0.89040587      1.14141874      0.74785878 H
atom_frac       0.34678942      0.61853861      1.07828309 H
atom_frac       0.35712889      0.43422395      0.69086900 H
atom_frac      -0.20548930      0.30373707     -0.10015145 H
atom_frac       0.02666811      0.75842442      0.49212398 H
atom_frac       0.53764573      0.67377096      0.23111618 H
atom_frac       0.25319775     -0.09275350      0.34357630 H
atom_frac       0.70129416      0.42257517      0.14066098 H
atom_frac       0.74820597      0.68154105      0.44374818 H
atom_frac       1.16502951      0.65934972      0.87977338 H
atom_frac       0.83379196      0.19658285      0.40541194 H
atom_frac       0.36671717      0.22038001      0.61320702 H
atom_frac       0.74757210      1.09376445      0.65682762 H
atom_frac       0.29852725      0.57727744      0.85922708 H
atom_frac       0.25170511      0.31850022      0.55592364 H
atom_frac      -0.16514973      0.34057683      0.12019852 H
atom_frac       0.16648269      0.80339840      0.59436934 H
atom_frac       0.63316978      0.77947593      0.38632971 H
atom_frac       0.20755588      0.00659041      0.28753471 H
atom_frac       0.55250674      0.33614538      0.08207355 H
atom_frac       0.79193754      0.62004080      0.27028054 H
atom_frac       1.22116392      0.80164742      0.96807009 H
atom_frac       0.93885191      0.16624771      0.30278245 H
atom_frac       0.37725623      0.18810135      0.82292317 H
atom_frac       0.79277360      0.99419666      0.71329051 H
atom_frac       0.44732258      0.66366241      0.91777775 H
atom_frac       0.20787192      0.37976339      0.72955022 H
atom_frac      -0.22122194      0.19828523      0.03191038 H
atom_frac       0.06156789      0.83376061      0.69740538 H
atom_frac       0.62233979      0.81145678      0.17651653 H
atom_frac       0.13957265     -0.06864700      0.50392039 N
atom_frac      -0.34338745      0.25667706      0.05693083 N
atom_frac       0.71332685      0.71863075      0.20688776 N
atom_frac       0.34327632      0.74319058      0.94297640 N
atom_frac       0.86102568      0.06906805      0.49675938 N
atom_frac       0.28623286      0.28089186      0.79255975 N
atom_frac       0.65530306      0.19242329      0.37898736 O
atom_frac       0.77711392      0.42697550      0.38637373 O
atom_frac       0.52770640      0.31379425      0.41123169 O
initial_moment 1.0
atom_frac       0.81787914      0.35865452      0.65569633 O
initial_moment -1.0
atom_frac       0.58454069      0.20732717      0.68378988 O
atom_frac       0.65406297      0.45301002      0.67006372 O
atom_frac       0.34465843      0.80741729      0.62090062 O
initial_moment 0.0
atom_frac       0.22278913      0.57289412      0.61352135 O
atom_frac       0.47217848      0.68599701      0.58862962 O
atom_frac       0.18203183      0.64122280      0.34421354 O
atom_frac       0.41541131      0.79250672      0.31609380 O
atom_frac       0.34580259      0.54678420      0.32981386 O
