#=======================================================
# FHI-aims file: geometry.in
# Created using the Atomic Simulation Environment (ASE)
# Tue Mar  8 17:02:26 2022
#=======================================================
lattice_vector 14.7753110000000003 0.0000000000000000 0.0000000000000000 
lattice_vector -6.0365438628294257 11.2974073729815263 0.0000000000000000 
lattice_vector -0.5170849666371050 -0.1425080311552528 4.4286894927207490 
atom_frac 0.0063330000000000 0.4194560000000000 0.7327350000000000 C
atom_frac 0.5595399999999999 0.5572820000000001 0.7293750000000000 C
atom_frac 0.4444260000000000 0.0072410000000000 0.6961810000000000 C
atom_frac 0.5459020000000000 0.9578980000000000 0.2478330000000000 C
atom_frac 0.4274700000000000 0.4131030000000000 0.2181800000000000 C
atom_frac 0.9819140000000000 0.5451150000000000 0.2224910000000000 C
atom_frac 0.9041439999999999 0.3972580000000001 0.6196810000000000 C
atom_frac 0.5840640000000000 0.4761680000000000 0.6005330000000000 C
atom_frac 0.5289140000000000 0.1007290000000000 0.5767200000000000 C
atom_frac 0.5789440000000000 0.0773770000000000 0.3357640000000000 C
atom_frac 0.5189009999999999 0.4057820000000000 0.3221500000000000 C
atom_frac 0.8932750000000000 0.4645030000000000 0.3549340000000000 C
atom_frac 0.0837250000000000 0.5675600000000000 0.3355560000000000 C
atom_frac 0.4028960000000000 0.4938820000000000 0.3475620000000000 C
atom_frac 0.4608720000000000 0.8646340000000001 0.3657940000000000 C
atom_frac 0.4116310000000000 0.8881950000000000 0.6072520000000000 C
atom_frac 0.4677950000000000 0.5642190000000000 0.6257420000000000 C
atom_frac 0.0944260000000000 0.4990110000000000 0.5967510000000000 C
atom_frac 0.7441300000000000 0.9516250000000001 0.5330220000000000 C
atom_frac 0.8220400000000000 0.1264680000000000 0.1980750000000000 C
atom_frac 0.2506690000000000 0.0267460000000000 0.4068740000000000 C
atom_frac 0.1719940000000000 0.8442740000000000 0.6984120000000000 C
atom_frac 0.7969730000000000 0.6971720000000000 0.5921999999999999 C
atom_frac 0.9618160000000000 0.7575850000000000 0.4126350000000000 C
atom_frac 0.0286130000000000 0.3471410000000000 0.0386870000000000 Cl
atom_frac 0.6314320000000000 0.6353360000000000 0.0563920000000000 Cl
atom_frac 0.3967830000000000 0.0452960000000000 0.9844150000000000 Cl
atom_frac 0.5934760000000000 0.9198780000000000 0.9594310000000001 Cl
atom_frac 0.3550840000000000 0.3354500000000000 0.8930910000000000 Cl
atom_frac 0.9620379999999999 0.6192250000000000 0.9126539999999999 Cl
atom_frac 0.6787220000000000 0.3333220000000000 0.4514760000000000 Fe
initial_moment 5.0
atom_frac 0.3069960000000000 0.6347320000000000 0.4932610000000000 Fe
initial_moment 5.0
atom_frac 0.8746310000000000 0.0013529999999999 0.3120050000000000 H
atom_frac 0.7609040000000000 0.9536440000000000 0.0810550000000000 H
atom_frac 0.6730660000000002 0.9610940000000000 0.5085220000000000 H
atom_frac 0.7483410000000000 0.1255470000000000 0.1202930000000000 H
atom_frac 0.7938680000000000 0.9972580000000000 0.7494330000000000 H
atom_frac 0.8619769999999999 0.1900410000000000 0.3843860000000000 H
atom_frac 0.7246710000000000 0.8577020000000000 0.5419990000000000 H
atom_frac 0.8711730000000000 0.1522270000000000 0.0166020000000000 H
atom_frac 0.2289750000000000 0.0134690000000000 0.8594800000000000 H
atom_frac 0.1177070000000000 0.9689710000000000 0.6193970000000000 H
atom_frac 0.2028669999999999 0.9811359999999999 0.1871580000000000 H
atom_frac 0.1435200000000001 0.7935310000000000 0.4862389999999999 H
atom_frac 0.3227260000000000 0.0191690000000000 0.4341710000000000 H
atom_frac 0.2447089999999999 0.8451959999999999 0.7894420000000000 H
atom_frac 0.2680540000000000 0.1199940000000000 0.4014360000000000 H
atom_frac 0.1166540000000000 0.8049050000000000 0.8636440000000000 H
atom_frac 0.8233510000000001 0.7187060000000000 0.1349140000000000 H
atom_frac 0.8813430000000000 0.8481090000000000 0.3477850000000000 H
atom_frac 0.8432860000000001 0.7461010000000000 0.8101400000000000 H
atom_frac 0.7814700000000000 0.6044520000000000 0.6087640000000000 H
atom_frac 0.7230130000000000 0.6989360000000000 0.5608750000000000 H
atom_frac 0.9943479999999999 0.8023549999999999 0.6343140000000000 H
atom_frac 0.9553019999999999 0.6678640000000000 0.4199720000000000 H
atom_frac 0.0080520000000000 0.8090200000000000 0.2352960000000000 H
atom_frac 0.8037990000000000 0.0055940000000001 0.2799800000000000 N
atom_frac 0.1893240000000000 0.9669530000000000 0.6493150000000000 N
atom_frac 0.8611920000000002 0.7561130000000001 0.3568390000000000 N
atom_frac 0.8217270000000000 0.3293370000000000 0.7305720000000000 O
atom_frac 0.6598360000000000 0.4574870000000000 0.6915350000000000 O
atom_frac 0.5676530000000000 0.2085950000000000 0.6624290000000000 O
atom_frac 0.6466730000000001 0.1698340000000000 0.2276020000000000 O
atom_frac 0.5530050000000000 0.3469560000000000 0.1970470000000000 O
initial_moment -1.0
atom_frac 0.8012880000000000 0.4480810000000000 0.2708340000000000 O
initial_moment -1.0
atom_frac 0.1667900000000000 0.6367969999999999 0.2287040000000000 O
atom_frac 0.3265330000000000 0.5113000000000000 0.2561360000000000 O
atom_frac 0.4200490000000000 0.7568720000000000 0.2776460000000000 O
atom_frac 0.3432260000000000 0.7953960000000000 0.7144580000000000 O
atom_frac 0.4330720000000000 0.6220700000000000 0.7521710000000000 O
atom_frac 0.1864210000000000 0.5145830000000000 0.6781710000000000 O
