# 
# This is the geometry file that corresponds to the current relaxation step.
# If you do not want this file to be written, set the "write_restart_geometry" flag to .false.
#  aims_uuid : 50AC6504-17B4-40A5-A48B-26D867F44090                                
# 
lattice_vector     13.96634038     -0.21250025      0.05054227
lattice_vector     -6.69021657     11.71650860     -0.08319280
lattice_vector      0.48613180     -0.48587077      8.79229110
atom_frac       0.31752500     -0.28510090     -0.00460828 C
atom_frac       0.73739217      0.49077691      0.99939035 C
atom_frac       0.68283394      1.28580091      1.00436160 C
atom_frac       0.26282455      0.50996145      0.00116602 C
atom_frac       0.53399326     -0.00495262      0.34170169 C
atom_frac       1.00273774      0.53121282      0.34693375 C
atom_frac       0.47524839      0.46197032      0.34199758 C
atom_frac      -0.00288803      0.46835236      0.65296827 C
atom_frac       0.46581685      1.00462793      0.65807896 C
atom_frac       0.52441294      0.53752324      0.65805269 C
atom_frac       0.57028274      0.10145703      0.42205661 C
atom_frac       0.90112867      0.46765817      0.42315161 C
atom_frac       0.54050048      0.43279850      0.42036321 C
atom_frac       0.89769576      0.43639460      0.58113303 C
atom_frac       0.53443828      0.10630040      0.58419102 C
atom_frac       0.56599953      0.47129561      0.58265303 C
atom_frac       0.42954367      0.89821961      0.57774050 C
atom_frac       0.09872444      0.53195031      0.57676325 C
atom_frac       0.45921514      0.56675770      0.57968040 C
atom_frac       0.10215779      0.56318717      0.41876714 C
atom_frac       0.46540261      0.89336791      0.41560384 C
atom_frac       0.43372148      0.52825842      0.41738895 C
atom_frac       0.57059860     -0.01074271      0.15320257 Cl
atom_frac       1.00542614      0.56393804      0.16162514 Cl
atom_frac       0.45012136      0.42105702      0.15202418 Cl
atom_frac      -0.00557499      0.43561880      0.83826127 Cl
atom_frac       0.42921766      1.01049281      0.84656112 Cl
atom_frac       0.54953955      0.57845136      0.84803213 Cl
atom_frac       0.67051015      0.33956403      0.51246939 Fe
initial_moment 5.0
atom_frac       0.32935269      0.66010176      0.48745426 Fe
initial_moment 5.0
atom_frac       0.23600338      0.58574812     -0.17664946 H
atom_frac       0.76396599      0.41456277      1.17672562 H
atom_frac       0.36590816      0.62369359     -0.16258689 H
atom_frac       0.63401501      0.37654186      1.16261710 H
atom_frac       0.38550469     -0.25889993      0.07434270 H
atom_frac       0.67300078      0.46838027      0.91592481 H
atom_frac       0.61499926      1.25955694      0.92514082 H
atom_frac       0.32753613      0.53270616      0.08425944 H
atom_frac       0.24199711     -0.30287282      0.06213164 H
atom_frac       0.81527234      0.50993411      0.93829080 H
atom_frac       0.75850145      1.30393355      0.93773765 H
atom_frac       0.18512593      0.49101564      0.06263644 H
atom_frac       0.33971842     -0.21742815     -0.08380028 H
atom_frac       0.75009078      0.56596017      1.07309935 H
atom_frac       0.66071823      1.21802720      1.08335881 H
atom_frac       0.25003241      0.43462430     -0.07221864 H
atom_frac       0.29626922      0.60818881     -0.09382976 N
atom_frac       0.70373699      0.39227170      1.09389631 N
atom_frac       0.63402965      0.19977197      0.36847889 O
atom_frac       0.80492326      0.43129377      0.36773198 O
atom_frac       0.58342082      0.37321997      0.36297857 O
initial_moment -1.0
atom_frac       0.80045331      0.38073705      0.64149050 O
initial_moment -1.0
atom_frac       0.57147673      0.20801865      0.64438992 O
atom_frac       0.62652079      0.43970812      0.64259819 O
atom_frac       0.36580030      0.79990880      0.63133498 O
atom_frac       0.19493886      0.56840017      0.63220745 O
atom_frac       0.41635900      0.62641533      0.63701026 O
atom_frac       0.19939479      0.61886004      0.35841105 O
atom_frac       0.42840043      0.79164192      0.35544834 O
atom_frac       0.37327224      0.55991996      0.35740715 O
