# 
# This is the geometry file that corresponds to the current relaxation step.
# If you do not want this file to be written, set the "write_restart_geometry" flag to .false.
#  aims_uuid : 2ECE3C4A-D2F8-4138-ABE2-F2004055C8C4                                
# 
lattice_vector     13.41126888     -0.03224075      0.00418519
lattice_vector     -6.74849854     11.59411252      0.00732943
lattice_vector     -0.00680998     -0.00677736      8.18199321
atom_frac      -0.00015088      0.45172579      0.65570425 C
atom_frac       0.54927548      0.54926156      0.65621331 C
atom_frac       0.45181514     -0.00023357      0.65559527 C
atom_frac       0.54828156      0.00020657      0.34408195 C
atom_frac       0.45067944      0.45083024      0.34354727 C
atom_frac       0.00016504      0.54802350      0.34398207 C
atom_frac       0.89669659      0.42437304      0.57811674 C
atom_frac       0.57583774      0.47314287      0.57936993 C
atom_frac       0.52776633      0.10301170      0.57845241 C
atom_frac       0.57554764      0.10329893      0.42158697 C
atom_frac       0.52679549      0.42418569      0.42037525 C
atom_frac       0.89692219      0.47209354      0.42116679 C
atom_frac       0.10327017      0.57530090      0.42153800 C
atom_frac       0.42420305      0.52700644      0.42035017 C
atom_frac       0.47237046      0.89699417      0.42125990 C
atom_frac       0.42464592      0.89672034      0.57814182 C
atom_frac       0.47310355      0.57582689      0.57942187 C
atom_frac       0.10305996      0.52764370      0.57850750 C
atom_frac      -0.00063237      0.39734026      0.84552010 Cl
atom_frac       0.60429180      0.60422099      0.84549675 Cl
atom_frac       0.39700727     -0.00083161      0.84506217 Cl
atom_frac       0.60278286      0.00075537      0.15438901 Cl
atom_frac       0.39561536      0.39589945      0.15427287 Cl
atom_frac       0.00069817      0.60269257      0.15437311 Cl
atom_frac       0.79413475      0.35756858      0.63631356 O
initial_moment -1.0
atom_frac       0.64235590      0.43885166      0.63705910 O
initial_moment 1.0
atom_frac       0.56268295      0.20562764      0.63574818 O
atom_frac       0.64233173      0.20585562      0.36338269 O
atom_frac       0.56101287      0.35765469      0.36266349 O
atom_frac       0.79426046      0.43715885      0.36385194 O
atom_frac       0.20586328      0.64218281      0.36338157 O
atom_frac       0.35781566      0.56145044      0.36261075 O
atom_frac       0.43729185      0.79432613      0.36395025 O
initial_moment -1.0
atom_frac       0.35781931      0.79413079      0.63633065 O
atom_frac       0.43872254      0.64222518      0.63716190 O
atom_frac       0.20577588      0.56278752      0.63586892 O
atom_frac       0.66656240      0.33333057      0.49983502 V
initial_moment 2.0
atom_frac       0.33339915      0.66669359      0.49989494 V
initial_moment 1.0
