lattice_vector     11.05031874     -5.91870572      0.18825254
lattice_vector      0.62328584     13.82503697     -1.51550556
lattice_vector      0.29048913     -3.02540955      8.42845021
atom_frac       0.33699332      0.01642930      0.16331389 C
atom_frac       0.84528551      0.05979977      0.36858056 C
atom_frac       0.64646623      0.45232169      0.01391680 C
atom_frac       0.94863634      0.79329583      0.60565760 C
atom_frac       0.76052163      0.19595899      0.96636754 C
atom_frac       0.17982748      0.37841359      1.00545739 C
atom_frac       0.66299632      0.98355707      0.83664146 C
atom_frac       0.15467959      0.94027751      0.63154805 C
atom_frac       0.35358634      0.54770824      0.98611928 C
atom_frac       0.05135865      0.20670618      0.39433703 C
atom_frac       0.23959181      0.80401324      0.03361512 C
atom_frac       0.82019615      0.62159949     -0.00553833 C
atom_frac       0.53047094     -0.05402486      0.33722781 C
atom_frac      -0.00793687      0.51439272      0.35940381 C
atom_frac       0.43878748      0.41415878      0.35718432 C
atom_frac       0.00791160      0.48559050      0.64057192 C
atom_frac       0.46951149      0.05401541      0.66276721 C
atom_frac       0.56118648      0.58582977      0.64280439 C
atom_frac       0.56663228      0.06594389      0.40547032 C
atom_frac       0.89385132      0.43828914      0.41215037 C
atom_frac       0.51599142      0.39476794      0.42230374 C
atom_frac       0.90136534      0.42628297      0.55683769 C
atom_frac       0.53490543      0.12040035      0.57060239 C
atom_frac       0.57606281      0.48139403      0.56768735 C
atom_frac       0.43334270      0.93404557      0.59452057 C
atom_frac       0.10612246      0.56169493      0.58782667 C
atom_frac       0.48398084      0.60521974      0.57768668 C
atom_frac       0.09860987      0.57370051      0.44313812 C
atom_frac       0.46507175      0.87958944      0.42938926 C
atom_frac       0.42391048      0.51859414      0.43230254 C
atom_frac       0.56530885     -0.12472811      0.13329887 Cl
atom_frac      -0.01667890      0.53613517      0.18727582 Cl
atom_frac       0.35787487      0.30798714      0.18251776 Cl
atom_frac       0.01665301      0.46384938      0.81270162 Cl
atom_frac       0.43470569      0.12472258      0.86671073 Cl
atom_frac       0.64210518      0.69200477      0.81746415 Cl
atom_frac       0.65993385      0.30422998      0.47086878 Ti
initial_moment 0.0
atom_frac       0.34003919      0.69575779      0.52911833 Ti
initial_moment 0.0
atom_frac       0.19664731     -0.07752689      0.00548351 H
atom_frac      -0.00164008      0.03471700      0.35598410 H
atom_frac       0.77742930      0.44892345     -0.16816071 H
atom_frac       0.00156713      0.96531107      0.64419799 H
atom_frac       0.80330750      0.07741669      0.99452625 H
atom_frac       0.22256804      0.55107765      1.16811909 H
atom_frac       0.32053370     -0.08698406     -0.09233152 H
atom_frac      -0.01945972      0.05170562      0.19146215 H
atom_frac       0.69246035      0.50222770     -0.18579126 H
atom_frac       0.01939371      0.94824351      0.80863868 H
atom_frac       0.67943674      0.08695281      1.09229460 H
atom_frac       0.30751594      0.49776490      1.18578905 H
atom_frac       0.41920583      0.01179799      0.17390902 H
atom_frac       0.81647135      0.11085293      0.33480950 H
atom_frac       0.59844723      0.50797251      0.08456488 H
atom_frac       0.97845252      0.74304939      0.63977963 H
atom_frac       0.68164330      0.19736077      0.93608617 H
atom_frac       0.22724892      0.32152957      0.94099307 H
atom_frac       0.58085647      0.98828686      0.82597028 H
atom_frac       0.18351223      0.88917747      0.66518560 H
atom_frac       0.40162392      0.49206885      0.91551308 H
atom_frac       0.02157023      0.25693400      0.36013155 H
atom_frac       0.31852931      0.80266210      0.06380712 H
atom_frac       0.77278201      0.67848765      0.05895792 H
atom_frac       0.28177314      0.01351687      0.27314514 H
atom_frac       0.83575824      0.08438972      0.50198144 H
atom_frac       0.69063464      0.44539781      0.09943514 H
atom_frac       0.95174076      0.76420457      0.47147220 H
atom_frac       0.82597909      0.20006117      0.86652782 H
atom_frac       0.13311363      0.37920242      0.91647298 H
atom_frac       0.71827669      0.98642130      0.72684090 H
atom_frac       0.16422607      0.91579557      0.49816833 H
atom_frac       0.30945654      0.55463489      0.90055976 H
atom_frac       0.04826721      0.23586270      0.52853204 H
atom_frac       0.17419149      0.79989378      0.13351603 H
atom_frac       0.86695410      0.62082756      0.08341298 H
atom_frac       0.35510201      0.09613226      0.15101253 H
atom_frac       0.79365116     -0.03214117      0.30407653 H
atom_frac       0.58624570      0.36709577     -0.06375516 H
atom_frac       0.85941643      0.78441911      0.65345054 H
atom_frac       0.79515962      0.26772259      1.08344869 H
atom_frac       0.11729186      0.34770115      1.09393355 H
atom_frac       0.64475395      0.90383161      0.84896839 H
atom_frac       0.20628285      1.03221031      0.69617787 H
atom_frac       0.41378236      0.63293363      1.06383314 H
atom_frac       0.14056704      0.21553172      0.34653693 H
atom_frac       0.20492113      0.73223260     -0.08343890 H
atom_frac       0.88269166      0.65229490     -0.09405864 H
atom_frac       0.27264350     -0.08513768      0.01732615 N
atom_frac      -0.02860808      0.08296958      0.32115194 N
atom_frac       0.73495782      0.50366449     -0.09467628 N
atom_frac       0.02856051      0.91703977      0.67895406 N
atom_frac       0.72735485      0.08508859      0.98265334 N
atom_frac       0.26504949      0.49634255      1.09465432 N
atom_frac       0.62999271      0.13714048      0.32760803 O
atom_frac       0.78946114      0.37494680      0.33962174 O
atom_frac       0.53900190      0.29985404      0.36080866 O
initial_moment -1.0
atom_frac       0.80130808      0.35694064      0.60278607 O
initial_moment -1.0
atom_frac       0.56906432      0.23401692      0.62645359 O
atom_frac       0.64566824      0.45400919      0.62284142 O
atom_frac       0.36997841      0.86284729      0.67237971 O
initial_moment 2.0
atom_frac       0.21051138      0.62503953      0.66035903 O
atom_frac       0.46096910      0.70013342      0.63918308 O
atom_frac       0.19866699      0.64304462      0.39719278 O
atom_frac       0.43091395      0.76597301      0.37353742 O
atom_frac       0.35430591      0.54597957      0.37714759 O
