lattice_vector     11.44057932     -6.28898809     -0.31059128
lattice_vector      0.32476398     13.52027157     -0.31243895
lattice_vector     -0.31361580     -0.56856663      7.98502294
atom_frac       0.17313608     -0.07295551      0.37572535 C
atom_frac       0.64200945      0.37086882      0.03124797 C
atom_frac       0.74765852      0.65406649      0.32927660 C
atom_frac       1.23738374      0.72688521      0.98937737 C
atom_frac       0.93110716      0.17035308      0.38618650 C
atom_frac       0.36099046      0.24100102      0.72591681 C
atom_frac       0.82683050      1.07290262      0.62417322 C
atom_frac       0.35798287      0.62908006      0.96871912 C
atom_frac       0.25233831      0.34591403      0.67074111 C
atom_frac      -0.23739551      0.27306038      0.01058880 C
atom_frac       0.06888255      0.82956143      0.61371150 C
atom_frac       0.63900127      0.75891043      0.27399049 C
atom_frac       0.53511233     -0.01019600      0.34084033 C
atom_frac      -0.01726175      0.53515759      0.34804810 C
atom_frac       0.43162840      0.42846061      0.35975180 C
atom_frac       0.01729078      0.46478297      0.65190695 C
atom_frac       0.46482990      0.01016163      0.65914324 C
atom_frac       0.56830100      0.57142812      0.64024986 C
atom_frac       0.57169610      0.09631521      0.42699651 C
atom_frac       0.88763953      0.46216817      0.42714266 C
atom_frac       0.51414680      0.40658402      0.43933428 C
atom_frac       0.90536815      0.42754210      0.58068631 C
atom_frac       0.53786897      0.10718594      0.59017792 C
atom_frac       0.58207250      0.47783458      0.58315895 C
atom_frac       0.42825433      0.90365193      0.57299149 C
atom_frac       0.11239390      0.53776312      0.57279191 C
atom_frac       0.48579132      0.59330329      0.56065591 C
atom_frac       0.09466659      0.57238983      0.41926374 C
atom_frac       0.46206084      0.89278739      0.40979858 C
atom_frac       0.41785763      0.52205255      0.41684156 C
atom_frac       0.58011716     -0.02057445      0.13995858 Cl
atom_frac      -0.03663883      0.57730878      0.15626697 Cl
atom_frac       0.33477280      0.32888810      0.19961401 Cl
atom_frac       0.03666370      0.42270512      0.84375830 Cl
atom_frac       0.41986910      0.02053457      0.86005975 Cl
atom_frac       0.66527516      0.67111232      0.80017647 Cl
atom_frac       0.66765095      0.32552026      0.51958325 V
initial_moment -1.0
atom_frac       0.33239277      0.67445144      0.48038447 V
initial_moment -1.0
atom_frac       0.10671014     -0.00701512      0.56734107 H
atom_frac      -0.37409399      0.23660317      0.15694091 H
atom_frac       0.81792496      0.81892544      0.27525710 H
atom_frac       0.37408048      0.76334595      0.84302379 H
atom_frac       0.89335104      0.00694334      0.43266527 H
atom_frac       0.18208289      0.18104519      0.72474987 H
atom_frac       0.00554135     -0.10478516      0.43324879 H
atom_frac      -0.41113897      0.20568612     -0.05026422 H
atom_frac       0.73828964      0.71994193      0.11207894 H
atom_frac       0.41112596      0.79426361      1.05022643 H
atom_frac       0.99443973      0.10479444      0.56675860 H
atom_frac       0.26175612      0.28001455      0.88789280 H
atom_frac       0.14763882     -0.15371068      0.30254716 H
atom_frac       0.65934552      0.39487420     -0.09480070 H
atom_frac       0.66679546      0.57702341      0.30380439 H
atom_frac       1.21349313      0.69816269      1.11159406 H
atom_frac       0.96225287      0.25234073      0.45848862 H
atom_frac       0.43944048      0.31874101      0.76281737 H
atom_frac       0.85231133      1.15365582      0.69735145 H
atom_frac       0.34065183      0.60507472      1.09476888 H
atom_frac       0.33319352      0.42296143      0.69625367 H
atom_frac      -0.21350072      0.30178455     -0.11162667 H
atom_frac       0.03773137      0.74758712      0.54136396 H
atom_frac       0.56056435      0.68115426      0.23710558 H
atom_frac       0.25683991     -0.04486413      0.44333836 H
atom_frac       0.70619717      0.43319992      0.12491070 H
atom_frac       0.76134509      0.68287564      0.46326693 H
atom_frac       1.17611958      0.66774455      0.88972793 H
atom_frac       0.84877402      0.14781439      0.31851851 H
atom_frac       0.35773039      0.21663401      0.59179494 H
atom_frac       0.74314303      1.04481769      0.55651210 H
atom_frac       0.29379297      0.56674451      0.87506379 H
atom_frac       0.23867227      0.31715123      0.53673817 H
atom_frac      -0.17613410      0.33220014      0.11024231 H
atom_frac       0.15121192      0.85207805      0.68137587 H
atom_frac       0.64224735      0.78328711      0.40810757 H
atom_frac       0.17687573     -0.01111339      0.29496616 H
atom_frac       0.55623010      0.35730607      0.06186076 H
atom_frac       0.81915237      0.64054425      0.28695563 H
atom_frac       1.24336700      0.80946911      0.98486140 H
atom_frac       0.99446122      0.17116119      0.29948322 H
atom_frac       0.35872362      0.17519879      0.79592405 H
atom_frac       0.82305975      1.01105249      0.70493944 H
atom_frac       0.44376083      0.64264231      0.93809852 H
atom_frac       0.18082791      0.35939937      0.71309360 H
atom_frac      -0.24337988      0.19047588      0.01510487 H
atom_frac       0.00552426      0.82873426      0.70042249 H
atom_frac       0.64123777      0.82469877      0.20397824 H
atom_frac       0.08571576     -0.08584983      0.49798400 N
atom_frac      -0.35253377      0.26446574      0.04038728 N
atom_frac       0.74079672      0.74147619      0.23867151 N
atom_frac       0.35252217      0.73548136      0.95957674 N
atom_frac       0.91428171      0.08579745      0.50197809 N
atom_frac       0.25921280      0.25847706      0.76128636 N
atom_frac       0.63986185      0.19189674      0.36792652 O
atom_frac       0.77792470      0.41773480      0.36949458 O
atom_frac       0.53742778      0.32338352      0.39238737 O
initial_moment 2.0
atom_frac       0.80924080      0.35770760      0.64373848 O
initial_moment 1.0
atom_frac       0.58055045      0.21112203      0.66656981 O
atom_frac       0.65533321      0.44767920      0.64974695 O
atom_frac       0.36012666      0.80806256      0.63207348 O
initial_moment 1.0
atom_frac       0.22211339      0.58223328      0.63042873 O
atom_frac       0.46255886      0.67655437      0.60757770 O
atom_frac       0.19080177      0.64223847      0.35625915 O
atom_frac       0.41937410      0.78884463      0.33339822 O
atom_frac       0.34463230      0.55223817      0.35020283 O
# 
# What follows is the current estimated Hessian matrix constructed by the BFGS algorithm.
# This is NOT the true Hessian matrix of the system.
# If you do not want this information here, switch it off using the "hessian_to_restart_geometry" keyword.
# 
trust_radius             0.2000000030
hessian_file
