lattice_vector     14.95128421     -1.45536344     -1.15302314
lattice_vector     -7.23745501     10.38347981     -0.16000494
lattice_vector     -0.41663151     -0.15027808      4.35979503
atom_frac      -0.02421492      0.40576013      0.72544157 C
atom_frac       0.57929614      0.59493379      0.77783364 C
atom_frac       0.43507480      0.00494543      0.70436724 C
atom_frac       0.56478473     -0.00516115      0.29577403 C
atom_frac       0.42053548      0.40483007      0.22229188 C
atom_frac       0.02406587      0.59403790      0.27469162 C
atom_frac       0.89915433      0.43367156      0.63243359 C
atom_frac       0.60782382      0.52820489      0.62408906 C
atom_frac       0.52369418      0.12525772      0.58997711 C
atom_frac       0.58622804      0.11886896      0.36353592 C
atom_frac       0.52828319      0.43364946      0.33631762 C
atom_frac       0.92185136      0.52587328      0.39403083 C
atom_frac       0.10069684      0.56612642      0.36769921 C
atom_frac       0.39200877      0.47156123      0.37603298 C
atom_frac       0.47616433      0.87452607      0.41016234 C
atom_frac       0.41362918      0.88091454      0.63659897 C
atom_frac       0.47154917      0.56611519      0.66380612 C
atom_frac       0.07799900      0.47392405      0.60610015 C
atom_frac      -0.05194698      0.30086529      1.00681449 Cl
atom_frac       0.66698052      0.70042163      1.11846230 Cl
atom_frac       0.36854561      0.01190147      0.96932851 Cl
atom_frac       0.63131219     -0.01211920      0.03081022 Cl
atom_frac       0.33285054      0.29934278     -0.11833879 Cl
atom_frac       0.05179866      0.69893230     -0.00668330 Cl
atom_frac       0.81204195      0.38973092      0.75509074 O
initial_moment -1.0
atom_frac       0.70141002      0.54249749      0.71117603 O
atom_frac       0.56083624      0.24452744      0.66518358 O
atom_frac       0.65219228      0.22675561      0.24448870 O
atom_frac       0.56694528      0.38860139      0.19480999 O
atom_frac       0.84160844      0.53618018      0.31378816 O
atom_frac       0.18780925      0.61006685      0.24504302 O
atom_frac       0.29842552      0.45727430      0.28894287 O
atom_frac       0.43901865      0.75525503      0.33494881 O
initial_moment -1.0
atom_frac       0.34766515      0.77302856      0.75564773 O
atom_frac       0.43288880      0.61116566      0.80531320 O
atom_frac       0.15824043      0.46361441      0.68633988 O
atom_frac       0.69915295      0.40928231      0.48209845 Fe
initial_moment 5.0
atom_frac       0.30069267      0.59050007      0.51801809 Fe
initial_moment 5.0
