# 
# This is the geometry file that corresponds to the current relaxation step.
# If you do not want this file to be written, set the "write_restart_geometry" flag to .false.
#  aims_uuid : 8470A66F-A431-4AC6-AD2D-D8BA8860B10F                                
# 
lattice_vector     14.67265736      0.25446934      0.17013853
lattice_vector     -6.83936188     11.31822415      0.03316906
lattice_vector     -0.43706875     -0.91714354      4.33663236
atom_frac       0.00360451      0.41537131      0.68349639 C
atom_frac       0.55524010      0.56269301      0.76338593 C
atom_frac       0.44706344      0.01305315      0.70873336 C
atom_frac       0.54296280      0.95571326      0.23421914 C
atom_frac       0.43522334      0.40639190      0.17909526 C
atom_frac       0.98652464      0.55303826      0.25842078 C
atom_frac       0.90302172      0.40475550      0.59163575 C
atom_frac       0.58488904      0.48327933      0.63030775 C
atom_frac       0.52888267      0.10627059      0.59572618 C
atom_frac       0.57623455      0.07672285      0.34287252 C
atom_frac       0.52345568      0.40366164      0.32574496 C
atom_frac       0.89340316      0.47215620      0.36138462 C
atom_frac       0.08713882      0.56376923      0.35059400 C
atom_frac       0.40554831      0.48576498      0.31229448 C
atom_frac       0.46112113      0.86249141      0.34719556 C
atom_frac       0.41371201      0.89201396      0.59997405 C
atom_frac       0.46695707      0.56536507      0.61685909 C
atom_frac       0.09671256      0.49627048      0.58053980 C
atom_frac       0.74728599      0.96013576      0.50830417 C
atom_frac       0.84139288      0.14415039      0.31309781 C
atom_frac       0.24291823      0.00888098      0.43484471 C
atom_frac       0.14817928      0.82485948      0.62994949 C
atom_frac       0.01278198      0.34715443     -0.02263673 Cl
atom_frac       0.61692006      0.64722277      0.12805167 Cl
atom_frac       0.39593627      0.04864745      1.00817063 Cl
atom_frac       0.59401689      0.92002615      0.93470136 Cl
atom_frac       0.37353537      0.32184608      0.81450897 Cl
atom_frac       0.97776417      0.62142650      0.96446376 Cl
atom_frac       0.67874014      0.33676792      0.48369628 Fe
initial_moment 5.0
atom_frac       0.31142615      0.63192551      0.45898451 Fe
initial_moment 5.0
atom_frac       0.88589462      1.01461064      0.31893451 H
initial_moment -1.0
atom_frac       0.77412059      0.97548280      0.06147897 H
atom_frac       0.68027487      0.97594384      0.50402009 H
atom_frac       0.76697685      0.14417651      0.25179121 H
atom_frac       0.79967688      0.99957594      0.74557831 H
atom_frac       0.88101288      0.19408850      0.54562570 H
atom_frac       0.71482023      0.86392430      0.45511446 H
atom_frac       0.89307728      0.18221314      0.14666334 H
atom_frac       0.21587804     -0.00640901      0.88152706 H
atom_frac       0.10421996     -0.04526565      0.62370224 H
atom_frac       0.19051188     -0.03029914      0.19751037 H
atom_frac       0.10900056      0.77510094      0.39702886 H
atom_frac       0.30969654     -0.00730571      0.43879076 H
atom_frac       0.22232562      0.82443548      0.69290329 H
atom_frac       0.27573041      0.10516781      0.48839902 H
atom_frac       0.09589847      0.78698798      0.79524032 H
atom_frac       0.81483425      1.01946128      0.29344982 N
atom_frac       0.17522641     -0.05029253      0.64943760 N
atom_frac       0.81898980      0.34464368      0.70061959 O
atom_frac       0.66195696      0.47292683      0.74160184 O
atom_frac       0.56774437      0.21719676      0.68995040 O
atom_frac       0.64246467      0.16511893      0.23832169 O
atom_frac       0.55794495      0.33906114      0.21818979 O
atom_frac       0.79824553      0.45092449      0.28112117 O
atom_frac       0.17120026      0.62397844      0.24186007 O
atom_frac       0.32841652      0.49601463      0.20111535 O
initial_moment -1.0
atom_frac       0.42229299      0.75158018      0.25288971 O
atom_frac       0.34742975      0.80362223      0.70439504 O
atom_frac       0.43238857      0.62985993      0.72456361 O
atom_frac       0.19182824      0.51736282      0.66077223 O
atom_frac       1.08638763      0.24334786      0.49133708 C
atom_frac       0.18840260      0.19107163     -0.36453915 H
atom_frac       0.07919913      0.08204416      0.36832753 H
atom_frac       1.04687491      0.24574719      0.27555455 H
atom_frac       1.14630101      0.33503382      0.61073074 H
atom_frac       1.02816522      0.19709545      0.63720879 H
atom_frac       0.13978215      0.17680575      0.42288313 N
atom_frac       0.20181009      0.21648898      0.17961717 C
atom_frac       0.14270825      0.16586478     -0.04345597 H
atom_frac       0.23604260      0.31267029      0.19501747 H
atom_frac       0.26491139      0.19547167      0.18514586 H
atom_frac       0.78873306      0.75252576      0.76295558 C
atom_frac       0.80166680      0.77885231      1.30775138 H
atom_frac       0.91169185      0.88652436      0.57417115 H
atom_frac       0.84789435      0.80369634      0.98557414 H
atom_frac       0.75479781      0.65642879      0.74859960 H
atom_frac       0.72534571      0.77309240      0.75711827 H
atom_frac       0.85040095      0.79197293      0.51870890 N
atom_frac       0.90215814      0.72399719      0.44464932 C
atom_frac      -0.05951107      0.71837978      0.65780044 H
atom_frac      -0.15859423      0.63343676      0.32006137 H
atom_frac      -0.03874252      0.77116660      0.30176316 H
