lattice_vector     11.37164067     -6.55781291     -0.00721094
lattice_vector      0.09500229     13.11857313      0.00679446
lattice_vector      0.00591031     -0.01146128      8.91621217
atom_frac       0.36883763      0.10607410      0.19425862 C
atom_frac       0.88872303      0.25856221      0.19023751 C
atom_frac       0.73487852      0.62507872      0.18910083 C
atom_frac       0.89369769      0.63159829      0.80567982 C
atom_frac       0.74067925      0.11163824      0.81058124 C
atom_frac       0.37424735      0.26487860      0.81022723 C
atom_frac       0.63116262      0.89392580      0.80574110 C
atom_frac       0.11127677      0.74143783      0.80976227 C
atom_frac       0.26512143      0.37492154      0.81089944 C
atom_frac       0.10630213      0.36840150      0.19432029 C
atom_frac       0.25932105      0.88836165      0.18941838 C
atom_frac       0.62575301      0.73512206      0.18977288 C
atom_frac       0.55154495     -0.00071373      0.36273069 C
atom_frac      -0.00058202      0.55152213      0.36271772 C
atom_frac       0.44642991      0.44627607      0.36468201 C
atom_frac       0.00058194      0.44847775      0.63728244 C
atom_frac       0.44845480      0.00071358      0.63726933 C
atom_frac       0.55357005      0.55372375      0.63531823 C
atom_frac       0.58232626      0.10734486      0.43072842 C
atom_frac       0.89200265      0.47329990      0.42997998 C
atom_frac       0.52555065      0.41696477      0.43126504 C
atom_frac       0.89265882      0.41778654      0.56932961 C
atom_frac       0.52676206      0.10814031      0.57004642 C
atom_frac       0.58303241      0.47460683      0.56872570 C
atom_frac       0.41767352      0.89265495      0.56927167 C
atom_frac       0.10799727      0.52669999      0.57002018 C
atom_frac       0.47444930      0.58303507      0.56873518 C
atom_frac       0.10734112      0.58221335      0.43067056 C
atom_frac       0.47323773      0.89185951      0.42995367 C
atom_frac       0.41696753      0.52539299      0.43127453 C
atom_frac       0.60871977     -0.00143856      0.18644665 Cl
atom_frac      -0.00119005      0.60872324      0.18650130 Cl
atom_frac       0.38630269      0.38598976      0.19065365 Cl
atom_frac       0.00118983      0.39127666      0.81349892 Cl
atom_frac       0.39127985      0.00143871      0.81355323 Cl
atom_frac       0.61369724      0.61400984      0.80934667 Cl
atom_frac       0.66754867      0.33264807      0.50002599 Fe
atom_frac       0.33245118      0.66735175      0.49997424 Fe
atom_frac       0.21395245     -0.00299481      0.30609533 H
atom_frac      -0.00235898      0.21294663      0.30540300 H
atom_frac       0.77802016      0.77746431      0.30686350 H
atom_frac       0.00235856      0.78705314      0.69459687 H
atom_frac       0.78604767      0.00299463      0.69390410 H
atom_frac       0.22198019      0.22253620      0.69313649 H
atom_frac       0.19496532     -0.00035361      0.12404900 H
atom_frac       0.00002908      0.19460986      0.12312252 H
atom_frac       0.80085572      0.80048421      0.12546673 H
atom_frac      -0.00002938      0.80539004      0.87687734 H
atom_frac       0.80503504      0.00035350      0.87595039 H
atom_frac       0.19914453      0.19951605      0.87453320 H
atom_frac       0.40834176      0.10632536      0.08549303 H
atom_frac       0.89036591      0.29965355      0.08226875 H
atom_frac       0.69700058      0.58810646      0.07905817 H
atom_frac       0.89362365      0.59176832      0.91405460 H
atom_frac       0.70011786      0.10984662      0.91908641 H
atom_frac       0.41157205      0.30284081      0.92011562 H
atom_frac       0.59165861      0.89367463      0.91450674 H
atom_frac       0.10963397      0.70034645      0.91773097 H
atom_frac       0.30299942      0.41189380      0.92094208 H
atom_frac       0.10637626      0.40823166      0.08594563 H
atom_frac       0.29988270      0.89015337      0.08091338 H
atom_frac       0.58842812      0.69715965      0.07988464 H
atom_frac       0.42515370      0.10542330      0.28488949 H
atom_frac       0.88489149      0.31254739      0.28188607 H
atom_frac       0.67798923      0.56684624      0.27795969 H
atom_frac       0.89436048      0.57556285      0.71451357 H
atom_frac       0.68623886      0.11542300      0.71967711 H
atom_frac       0.43240310      0.32150204      0.72112503 H
atom_frac       0.57484647      0.89457658      0.71511032 H
atom_frac       0.11510840      0.68745277      0.71811363 H
atom_frac       0.32201052      0.43315413      0.72204054 H
atom_frac       0.10563941      0.42443688      0.28548668 H
atom_frac       0.31376121      0.88457677      0.28032274 H
atom_frac       0.56759727      0.67849893      0.27887530 H
atom_frac       0.35839195      0.18379654      0.20559991 H
atom_frac       0.81232924      0.17018232      0.19727839 H
atom_frac       0.82270704      0.63513890      0.20027243 H
atom_frac       0.81592769      0.64193632      0.79498226 H
atom_frac       0.82890560      0.18817685      0.80299929 H
atom_frac       0.36370214      0.17679051      0.79905019 H
atom_frac       0.64160825      0.81620333      0.79439981 H
atom_frac       0.18767048      0.82981778      0.80272146 H
atom_frac       0.17729280      0.36486113      0.79972803 H
atom_frac       0.18407205      0.35806332      0.20501775 H
atom_frac       0.17109467      0.81182305      0.19700004 H
atom_frac       0.63629845      0.82321026      0.20094958 H
atom_frac       0.25270009     -0.00213555      0.20440168 N
atom_frac      -0.00171959      0.25206811      0.20414332 N
atom_frac       0.74148958      0.74113216      0.20396384 N
atom_frac       0.00171930      0.74793176      0.79585659 N
atom_frac       0.74730018      0.00213543      0.79559785 N
atom_frac       0.25851066      0.25886825      0.79603622 N
atom_frac       0.65782619      0.21016769      0.37834508 O
atom_frac       0.78860758      0.44399754      0.37664551 O
atom_frac       0.55394688      0.34144949      0.37879469 O
atom_frac       0.78983283      0.34242320      0.62176418 O
atom_frac       0.55613459      0.21165413      0.62343708 O
atom_frac       0.65860690      0.44640461      0.62115203 O
atom_frac       0.34217364      0.78983213      0.62165502 O
atom_frac       0.21139233      0.55600238      0.62335468 O
atom_frac       0.44605299      0.65855031      0.62120553 O
atom_frac       0.21016711      0.65757671      0.37823604 O
atom_frac       0.44386525      0.78834569      0.37656312 O
atom_frac       0.34139297      0.55359516      0.37884833 O
