lattice_vector     11.37164067     -6.55781291     -0.00721094
lattice_vector      0.09500229     13.11857313      0.00679446
lattice_vector      0.00591031     -0.01146128      8.91621217
atom_frac       0.33617147      0.10135611      0.22525849 C
atom_frac       0.88623989      0.21815214      0.21622762 C
atom_frac       0.74777289      0.64091883      0.18901033 C
atom_frac       0.89597988      0.66780114      0.77563818 C
atom_frac       0.78114390      0.11641612      0.78340966 C
atom_frac       0.35794454      0.24460272      0.81102137 C
atom_frac       0.66382872      0.89864227      0.77473927 C
atom_frac       0.11376089      0.78185153      0.78376856 C
atom_frac       0.25222647      0.35908074      0.81098970 C
atom_frac       0.10402102      0.33219886      0.22436298 C
atom_frac       0.21885477      0.88358240      0.21658966 C
atom_frac       0.64205682      0.75539875      0.18898212 C
atom_frac       0.54525152      0.00048228      0.35687483 C
atom_frac      -0.00185788      0.54471975      0.35728273 C
atom_frac       0.45187692      0.45055675      0.36126588 C
atom_frac       0.00186039      0.45528142      0.64271804 C
atom_frac       0.45474676     -0.00048546      0.64312558 C
atom_frac       0.54812135      0.54944419      0.63873475 C
atom_frac       0.58141217      0.10748632      0.42941297 C
atom_frac       0.89176664      0.47190568      0.42901858 C
atom_frac       0.52624207      0.41707085      0.43118963 C
atom_frac       0.89371470      0.42011078      0.57433388 C
atom_frac       0.52893841      0.10717168      0.57501927 C
atom_frac       0.58114951      0.47330317      0.57275097 C
atom_frac       0.41858620      0.89251088      0.57058736 C
atom_frac       0.10823551      0.52809524      0.57098217 C
atom_frac       0.47375648      0.58292999      0.56881092 C
atom_frac       0.10628743      0.57989031      0.42566701 C
atom_frac       0.47106014      0.89282549      0.42498122 C
atom_frac       0.41884888      0.52669752      0.42724967 C
atom_frac       0.59103794      0.00090316      0.17237316 Cl
atom_frac      -0.00476346      0.59048577      0.17376022 Cl
atom_frac       0.40108718      0.39808028      0.18034715 Cl
atom_frac       0.00477002      0.40951707      0.82624039 Cl
atom_frac       0.40895844     -0.00091044      0.82762731 Cl
atom_frac       0.59890896      0.60192251      0.81965358 Cl
atom_frac       0.66760555      0.33256005      0.50444566 Fe
atom_frac       0.33239415      0.66743957      0.49555500 Fe
atom_frac       0.17190192     -0.00344595      0.31734265 H
atom_frac      -0.00279815      0.16755593      0.31444768 H
atom_frac       0.78641520      0.78739655      0.31520123 H
atom_frac       0.00279499      0.83244402      0.68555122 H
atom_frac       0.82809882      0.00344599      0.68265705 H
atom_frac       0.21358738      0.21260368      0.68479908 H
atom_frac       0.16703775      0.00104159      0.13539605 H
atom_frac       0.00136855      0.16400933      0.13238484 H
atom_frac       0.81925682      0.81936127      0.13840135 H
atom_frac      -0.00136920      0.83599162      0.86761421 H
atom_frac       0.83296175     -0.00104227      0.86460364 H
atom_frac       0.18074376      0.18063830      0.86159846 H
atom_frac       0.38215468      0.10104966      0.12404448 H
atom_frac       0.88766583      0.26762923      0.11781344 H
atom_frac       0.71680933      0.61004745      0.07617675 H
atom_frac       0.89575061      0.62022542      0.87543174 H
atom_frac       0.73287411      0.11582114      0.88273856 H
atom_frac       0.39066176      0.27700963      0.92283458 H
atom_frac       0.61784448      0.89894815      0.87595255 H
atom_frac       0.11233720      0.73237527      0.88218251 H
atom_frac       0.28318955      0.38995245      0.92382335 H
atom_frac       0.10425242      0.37977590      0.12456972 H
atom_frac       0.26712384      0.88417674      0.11726034 H
atom_frac       0.60933785      0.72299109      0.07716969 H
atom_frac       0.38349428      0.09657173      0.32242807 H
atom_frac       0.87932771      0.26186791      0.31607684 H
atom_frac       0.68569249      0.58017776      0.26999312 H
atom_frac       0.89918637      0.62080820      0.67701303 H
atom_frac       0.73734366      0.12442789      0.68451242 H
atom_frac       0.41988990      0.30298161      0.72816149 H
atom_frac       0.61650643      0.90342626      0.67756886 H
atom_frac       0.12067297      0.73813604      0.68391899 H
atom_frac       0.31430665      0.41982214      0.73000699 H
atom_frac       0.10081463      0.37919160      0.32298840 H
atom_frac       0.26265519      0.87557041      0.31548658 H
atom_frac       0.58011229      0.69702099      0.27184352 H
atom_frac       0.32927718      0.18042560      0.23038908 H
atom_frac       0.81240112      0.12963452      0.21078306 H
atom_frac       0.83307594      0.64850909      0.20705063 H
atom_frac       0.81787896      0.67643105      0.77263216 H
atom_frac       0.87025272      0.18920950      0.78810276 H
atom_frac       0.34538653      0.15695290      0.79615906 H
atom_frac       0.67072407      0.81957338      0.76960941 H
atom_frac       0.18759841      0.87036989      0.78921227 H
atom_frac       0.16692292      0.35148914      0.79294888 H
atom_frac       0.18212069      0.32356683      0.22736991 H
atom_frac       0.12974561      0.81078966      0.21189719 H
atom_frac       0.65461629      0.84304916      0.20384371 H
atom_frac       0.21691710     -0.00383138      0.22328720 N
atom_frac      -0.00242755      0.21385711      0.22136522 N
atom_frac       0.75595106      0.75763144      0.20937049 N
atom_frac       0.00242693      0.78614398      0.77863361 N
atom_frac       0.78308266      0.00383046      0.77671201 N
atom_frac       0.24404992      0.24236877      0.79063032 N
atom_frac       0.65815097      0.20754492      0.37973841 O
atom_frac       0.79102221      0.44606642      0.37830113 O
atom_frac       0.55093236      0.34040615      0.38064441 O
atom_frac       0.79439703      0.34516407      0.62764828 O
atom_frac       0.55581592      0.20725549      0.62975799 O
atom_frac       0.65623622      0.44795978      0.62708634 O
atom_frac       0.34184749      0.79245278      0.62026268 O
atom_frac       0.20897943      0.55393388      0.62170015 O
atom_frac       0.44906663      0.65959465      0.61935683 O
atom_frac       0.20560462      0.65483694      0.37235191 O
atom_frac       0.44418319      0.79274213      0.37024201 O
atom_frac       0.34376213      0.55204039      0.37291374 O
