lattice_vector     11.44057932     -6.28898809     -0.31059128
lattice_vector      0.32476398     13.52027157     -0.31243895
lattice_vector     -0.31361580     -0.56856663      7.98502294
atom_frac       0.17994491     -0.07455177      0.33214756 C
atom_frac       0.63823521      0.35346973      0.04906494 C
atom_frac       0.72283189      0.63890538      0.30971546 C
atom_frac       1.22435584      0.72478233      0.97590022 C
atom_frac       0.90439709      0.17394935      0.42166884 C
atom_frac       0.38038119      0.25135240      0.75019226 C
atom_frac       0.82048783      1.07488326      0.66830866 C
atom_frac       0.36162374      0.64641939      0.95078971 C
atom_frac       0.27706749      0.36102747      0.69012298 C
atom_frac      -0.22448355      0.27512001      0.02397234 C
atom_frac       0.09598063      0.82612013      0.57857355 C
atom_frac       0.61941227      0.74848826      0.24960975 C
atom_frac       0.53956142     -0.00786337      0.34600003 C
atom_frac      -0.02248003      0.53896968      0.35394961 C
atom_frac       0.43051847      0.42485470      0.36718367 C
atom_frac       0.02237821      0.46093895      0.64592796 C
atom_frac       0.46032625      0.00772326      0.65383847 C
atom_frac       0.56936943      0.57501193      0.63264866 C
atom_frac       0.58091983      0.09845735      0.43570400 C
atom_frac       0.88458927      0.46540984      0.43547271 C
atom_frac       0.50933302      0.40085942      0.45323981 C
atom_frac       0.90769657      0.42496787      0.58733950 C
atom_frac       0.54130791      0.10626023      0.59639875 C
atom_frac       0.58056365      0.47790895      0.59157769 C
atom_frac       0.41897594      0.90140300      0.56414001 C
atom_frac       0.11530671      0.53448402      0.56439102 C
atom_frac       0.49055609      0.59900747      0.54659733 C
atom_frac       0.09219989      0.57492272      0.41252113 C
atom_frac       0.45858407      0.89360021      0.40344500 C
atom_frac       0.41932680      0.52195853      0.40825975 C
atom_frac       0.58710130     -0.01638003      0.14450405 Cl
atom_frac      -0.04679627      0.58517513      0.16767395 Cl
atom_frac       0.32829307      0.31878870      0.21617531 Cl
atom_frac       0.04672119      0.41477607      0.83223329 Cl
atom_frac       0.41275982      0.01623348      0.85532114 Cl
atom_frac       0.67157427      0.68108789      0.78366997 Cl
atom_frac       0.66288639      0.32524155      0.53840834 V
initial_moment 1.0
atom_frac       0.33700276      0.67462344      0.46143220 V
initial_moment 1.0
atom_frac       0.20886660     -0.00709833      0.57852403 H
atom_frac      -0.35913511      0.22611491      0.17722791 H
atom_frac       0.78949461      0.78882557      0.21012995 H
atom_frac       0.35899640      0.77376910      0.82261766 H
atom_frac       0.79179884      0.00711058      0.42209476 H
atom_frac       0.21021253      0.21092462      0.78921022 H
atom_frac       0.07575134     -0.03816066      0.49968169 H
atom_frac      -0.39946503      0.19222836     -0.03125516 H
atom_frac       0.69474840      0.68354893      0.07816870 H
atom_frac       0.39934130      0.80766683      1.03109647 H
atom_frac       0.92499448      0.03858636      0.50126323 H
atom_frac       0.30483964      0.31609094      0.92155594 H
atom_frac       0.10837760     -0.14083489      0.25189121 H
atom_frac       0.64973059      0.37673734     -0.07801085 H
atom_frac       0.63972004      0.56427919      0.30385343 H
atom_frac       1.20614869      0.69896753      1.10100204 H
atom_frac       0.97409836      0.23962131      0.50537851 H
atom_frac       0.46349310      0.32599925      0.77232889 H
atom_frac       0.89205487      1.14110271      0.74862584 H
atom_frac       0.35014304      0.62316224      1.07787103 H
atom_frac       0.36021839      0.43562613      0.69619152 H
atom_frac      -0.20627394      0.30092828     -0.10113210 H
atom_frac       0.02619367      0.76061829      0.49481137 H
atom_frac       0.53628145      0.67385491      0.22762989 H
atom_frac       0.25126940     -0.09484258      0.34140282 H
atom_frac       0.70054226      0.42006822      0.13976348 H
atom_frac       0.74599019      0.67947645      0.43863268 H
atom_frac       1.16448702      0.65918406      0.88134937 H
atom_frac       0.83350786      0.19462156      0.40558613 H
atom_frac       0.36764907      0.22094116      0.61678295 H
atom_frac       0.74929597      1.09533962      0.65883202 H
atom_frac       0.29930393      0.57981626      0.86011105 H
atom_frac       0.25397934      0.32057889      0.56113907 H
atom_frac      -0.16462203      0.34072355      0.11852423 H
atom_frac       0.16675579      0.80527050      0.59440084 H
atom_frac       0.63225731      0.77896767      0.38300192 H
atom_frac       0.20801219      0.00598583      0.28463181 H
atom_frac       0.55147726      0.33204513      0.08542815 H
atom_frac       0.78885287      0.61772623      0.26456066 H
atom_frac       1.21904888      0.80199736      0.96584245 H
atom_frac       0.93683818      0.16227554      0.30147195 H
atom_frac       0.37820422      0.18825105      0.82624667 H
atom_frac       0.79221643      0.99436065      0.71592180 H
atom_frac       0.44837433      0.66783485      0.91440054 H
atom_frac       0.21105280      0.38222051      0.73526093 H
atom_frac      -0.21917231      0.19790888      0.03405394 H
atom_frac       0.06363480      0.83772979      0.69887998 H
atom_frac       0.62155138      0.81156049      0.17352263 H
atom_frac       0.14008597     -0.06711735      0.50244436 N
atom_frac      -0.34311069      0.25408218      0.05810872 N
atom_frac       0.71162317      0.71772778      0.20254826 N
atom_frac       0.34297669      0.74581083      0.94174450 N
atom_frac       0.86047580      0.06731711      0.49813707 N
atom_frac       0.28810794      0.28204623      0.79712340 N
atom_frac       0.65608668      0.19265289      0.37973618 O
atom_frac       0.77722585      0.42631052      0.38473418 O
atom_frac       0.52327422      0.31087836      0.41516069 O
initial_moment 2.0
atom_frac       0.81956295      0.35533219      0.65508712 O
initial_moment 1.0
atom_frac       0.58410878      0.20693943      0.68519567 O
atom_frac       0.65315765      0.45205414      0.67082586 O
atom_frac       0.34380414      0.80720834      0.62011086 O
initial_moment -1.0
atom_frac       0.22267050      0.57357483      0.61511869 O
atom_frac       0.47661203      0.68898493      0.58468406 O
atom_frac       0.18033398      0.64454075      0.34475363 O
atom_frac       0.41577854      0.79292120      0.31464702 O
atom_frac       0.34673259      0.54781312      0.32901307 O
