lattice_vector 11.050319 -5.918706 0.188253
lattice_vector 0.623286 13.825037 -1.515506
lattice_vector 0.290489 -3.025410 8.428450

atom_frac 0.549077 -0.044742 0.360293 C
atom_frac -0.023330 0.500640 0.356376 C
atom_frac 0.435923 0.407932 0.356152 C
atom_frac 0.010455 0.491852 0.644117 C
atom_frac 0.420819 0.029704 0.643348 C
atom_frac 0.544666 0.587096 0.642217 C
atom_frac 0.570913 0.072674 0.440188 C
atom_frac 0.880291 0.440204 0.433319 C
atom_frac 0.504167 0.389928 0.440464 C
atom_frac 0.896617 0.437127 0.582211 C
atom_frac 0.507507 0.112444 0.588513 C
atom_frac 0.557763 0.483107 0.588605 C
atom_frac 0.402899 0.912964 0.566089 C
atom_frac 0.106318 0.553472 0.568089 C
atom_frac 0.475050 0.600893 0.556606 C
atom_frac 0.089854 0.554927 0.419011 C
atom_frac 0.463681 0.873839 0.418018 C
atom_frac 0.421447 0.509063 0.410943 C
atom_frac 0.634366 -0.088849 0.185329 Cl
atom_frac -0.044335 0.507945 0.176910 Cl
atom_frac 0.366179 0.292548 0.174635 Cl
atom_frac 0.032647 0.481913 0.820662 Cl
atom_frac 0.326228 0.071805 0.806927 Cl
atom_frac 0.616518 0.701304 0.819569 Cl
atom_frac 0.645123 0.314135 0.530358 Ti
initial_moment -1.0
atom_frac 0.333572 0.674957 0.476603 Ti
atom_frac 0.647972 0.151644 0.385089 O
atom_frac 0.771486 0.384178 0.376041 O
atom_frac 0.524592 0.295657 0.392117 O
    initial_moment 1
atom_frac 0.801056 0.382618 0.654684 O
    initial_moment 1
atom_frac 0.535488 0.224503 0.663844 O
atom_frac 0.618623 0.463217 0.669009 O
atom_frac 0.328095 0.830824 0.620631 O
    initial_moment 1
atom_frac 0.215704 0.610423 0.623701 O
atom_frac 0.454614 0.696231 0.600718 O
atom_frac 0.187545 0.610156 0.348392 O
atom_frac 0.433832 0.760171 0.344056 O
atom_frac 0.358600 0.530745 0.333987 O
