# 
# This is the geometry file that corresponds to the current relaxation step.
# If you do not want this file to be written, set the "write_restart_geometry" flag to .false.
#  aims_uuid : 9E9A391A-F3BE-4C1B-A6A1-50527C560F3A                                
# 
lattice_vector     13.29783854      0.48382672     -0.02311809
lattice_vector     -6.07529648     11.59496256     -0.03130252
lattice_vector     -0.61670444     -0.35343464      4.44813799
atom_frac       0.00756277      0.41280619      0.71473875 C
atom_frac       0.54736906      0.49740689      0.70962092 C
atom_frac       0.44811307     -0.02251871      0.68000563 C
atom_frac       0.56277531      0.92901894      0.24709852 C
atom_frac       0.39814559      0.37577550      0.16706224 C
atom_frac       0.96970549      0.53366278      0.21448354 C
atom_frac       0.89752565      0.38514411      0.56743381 C
atom_frac       0.56740440      0.41833129      0.54783530 C
atom_frac       0.53118572      0.06604466      0.55272191 C
atom_frac       0.58768906      0.04297732      0.33008326 C
atom_frac       0.49327232      0.35612354      0.27329504 C
atom_frac       0.87836573      0.44354685      0.31226433 C
atom_frac       0.08081409      0.55646043      0.34654523 C
atom_frac       0.38228331      0.46083611      0.32077641 C
atom_frac       0.47453062      0.84018480      0.35990433 C
atom_frac       0.41925338      0.86424538      0.58454380 C
atom_frac       0.45613742      0.52044533      0.59863094 C
atom_frac       0.09887934      0.49719349      0.60240111 C
atom_frac       0.85178415      1.10014380      0.64569678 C
atom_frac       1.03744843      0.20461109      0.47761412 C
atom_frac       0.22370180      0.00627597      0.35041002 C
atom_frac       0.12887035      0.82132775      0.55438633 C
atom_frac       0.70869440      0.77544640      0.56735908 C
atom_frac       0.83820356      0.70246799      0.44130837 C
atom_frac       0.03159717      0.34062206      0.01205311 Cl
atom_frac       0.63270273      0.56141982      0.03899432 Cl
atom_frac       0.38402743      0.00970184      0.94657780 Cl
atom_frac       0.62946134      0.89703666      0.98616656 Cl
atom_frac       0.31281708      0.30896167      0.83536552 Cl
atom_frac       0.94506404      0.60282119      0.91209930 Cl
atom_frac       0.66262394      0.28173065      0.38415574 V
atom_frac       0.31539759      0.62547931      0.47763847 V
atom_frac       0.93681432      0.03177283      0.41932857 H
atom_frac       0.88355018      1.10692649      0.19982700 H
atom_frac       0.83317100      1.17427422      0.65293608 H
atom_frac       1.03032136      0.28558700      0.48628806 H
atom_frac       0.90005003      1.09734751      0.87215844 H
atom_frac       1.08316380      0.19807272      0.69210852 H
atom_frac       0.77285673      1.02159893      0.59937003 H
atom_frac       1.08064479      0.20149042      0.29072696 H
atom_frac       0.19386598     -0.02096774      0.78955108 H
atom_frac       0.07558371      0.95102962      0.53261740 H
atom_frac       0.17535288      0.96583115      0.11791324 H
atom_frac       0.08255286      0.78079065      0.33325069 H
atom_frac       0.30350459     -0.00209423      0.38536796 H
atom_frac       0.20858141      0.81323057      0.59860840 H
atom_frac       0.23959192      0.09596453      0.36505020 H
atom_frac       0.07925014      0.78177808      0.73007894 H
atom_frac       0.74491629      0.76545419      0.13563865 H
atom_frac       0.85464462      0.86434009      0.38038077 H
atom_frac       0.75753315      0.78866840      0.80389279 H
atom_frac       0.63676620      0.69087881      0.53900921 H
atom_frac       0.67862668      0.84125873      0.53047343 H
atom_frac       0.90536475      0.74575177      0.63364697 H
atom_frac       0.77569105      0.62278080      0.50986929 H
atom_frac      -0.12764666      0.68448396      0.25063267 H
atom_frac       0.92373688      0.10747917      0.42525502 N
atom_frac       0.15298532      0.94325767      0.56432206 N
atom_frac       0.78613352      0.78109608      0.36611886 N
atom_frac       0.80506923      0.30617498      0.63560876 O
atom_frac       0.65426816      0.39764436      0.61914647 O
atom_frac       0.56071451      0.17412350      0.60645312 O
atom_frac       0.65155029      0.13336951      0.20913733 O
atom_frac       0.52965404      0.29440199      0.13946934 O
atom_frac       0.77333774      0.40029753      0.18500696 O
atom_frac       0.17292746      0.62123641      0.24887468 O
atom_frac       0.30614215      0.49645377      0.23959026 O
atom_frac       0.43434883      0.73175018      0.28353284 O
atom_frac       0.34730465      0.77377600      0.68720403 O
atom_frac       0.42952288      0.59123148      0.72804000 O
atom_frac       0.20468024      0.52613778      0.70086434 O
# 
# What follows is the current estimated Hessian matrix constructed by the BFGS algorithm.
# This is NOT the true Hessian matrix of the system.
# If you do not want this information here, switch it off using the "hessian_to_restart_geometry" keyword.
# 
trust_radius             1.6000000238
hessian_file
