lattice_vector     11.05031874     -5.91870572      0.18825254
lattice_vector      0.62328584     13.82503697     -1.51550556
lattice_vector      0.29048913     -3.02540955      8.42845021
atom_frac       0.35827518      0.02286689      0.12308105 C
atom_frac       0.84621743      0.13397886      0.57607820 C
atom_frac       0.63242067      0.42865602     -0.02430326 C
atom_frac       0.99641595      0.82004573      0.62767321 C
atom_frac       0.68640016      0.18720666      0.98432803 C
atom_frac       0.18688387      0.39828450      1.00815713 C
atom_frac       0.64155300      0.97711518      0.87694774 C
atom_frac       0.15380003      0.86604302      0.42392338 C
atom_frac       0.36759930      0.57135401      1.02429617 C
atom_frac       0.00360775      0.17987303      0.37230435 C
atom_frac       0.31357939      0.81280809      0.01571551 C
atom_frac       0.81313402      0.60172340     -0.00818989 C
atom_frac       0.56105180     -0.04938120      0.36484530 C
atom_frac      -0.00584326      0.51513114      0.36041953 C
atom_frac       0.43546687      0.41507463      0.35652355 C
atom_frac       0.00587244      0.48487782      0.63954685 C
atom_frac       0.43896192      0.04939797      0.63518679 C
atom_frac       0.56457224      0.58495948      0.64350254 C
atom_frac       0.57401881      0.06336058      0.40587074 C
atom_frac       0.89747531      0.43240800      0.40305451 C
atom_frac       0.51869490      0.39488110      0.40775167 C
atom_frac       0.90237289      0.41987618      0.54894057 C
atom_frac       0.51490232      0.11626970      0.54830120 C
atom_frac       0.58283081      0.48289140      0.55868959 C
atom_frac       0.42600078      0.93665723      0.59416178 C
atom_frac       0.10254845      0.56760341      0.59691490 C
atom_frac       0.48133072      0.60514614      0.59229100 C
atom_frac       0.09765790      0.58012924      0.45102312 C
atom_frac       0.48511892      0.88374986      0.45173561 C
atom_frac       0.41719673      0.51713473      0.44134981 C
atom_frac       0.64556723     -0.10929518      0.20077227 Cl
atom_frac      -0.01356624      0.53700372      0.18751152 Cl
atom_frac       0.35478209      0.31244849      0.18007207 Cl
atom_frac       0.01361304      0.46302350      0.81246249 Cl
atom_frac       0.35440503      0.10928227      0.79921666 Cl
atom_frac       0.64533715      0.68763752      0.81987331 Cl
atom_frac       0.66324624      0.29940981      0.45382871 Ti
initial_moment 0.0
atom_frac       0.33677866      0.70060025      0.54617697 Ti
initial_moment 0.0
atom_frac       0.21305693     -0.11145315     -0.00756704 H
atom_frac      -0.05731543      0.03532156      0.42919146 H
atom_frac       0.77259130      0.43448900     -0.19438797 H
atom_frac       0.05727543      0.96462378      0.57086483 H
atom_frac       0.78690697      0.11135906      1.00735450 H
atom_frac       0.22744420      0.56551081      1.19440835 H
atom_frac       0.33169152     -0.09662391     -0.12968899 H
atom_frac      -0.15502392      0.03576535      0.32697745 H
atom_frac       0.69486560      0.49763520     -0.20306657 H
atom_frac       0.15501158      0.96419151      0.67304419 H
atom_frac       0.66835038      0.09662024      1.12965472 H
atom_frac       0.30516481      0.50233899      1.20301574 H
atom_frac       0.44665880      0.03522541      0.14320657 H
atom_frac       0.82315519      0.20124558      0.57634467 H
atom_frac       0.58429602      0.48379281      0.04905910 H
atom_frac       1.03099754      0.76236384      0.63366088 H
atom_frac       0.59419739      0.17626361      1.00528595 H
atom_frac       0.23387606      0.34105736      0.94204403 H
atom_frac       0.55315652      0.96482946      0.85702062 H
atom_frac       0.17686563      0.79875695      0.42357989 H
atom_frac       0.41572972      0.51622555      0.95091768 H
atom_frac      -0.03094347      0.23755872      0.36626308 H
atom_frac       0.40579139      0.82378244     -0.00515500 H
atom_frac       0.76612898      0.65893921      0.05791488 H
atom_frac       0.30823567      0.02986157      0.23895743 H
atom_frac       0.90661633      0.16983284      0.67627160 H
atom_frac       0.66797134      0.41193136      0.05890769 H
atom_frac       0.92935493      0.77122392      0.53277231 H
atom_frac       0.71302802      0.18164673      0.85857367 H
atom_frac       0.14988205      0.40937976      0.91989688 H
atom_frac       0.69147187      0.97006850      0.76097575 H
atom_frac       0.09340954      0.83023097      0.32373767 H
atom_frac       0.33203775      0.58808196      0.94110078 H
atom_frac       0.07065571      0.22869892      0.46722656 H
atom_frac       0.28690692      0.81837633      0.14146390 H
atom_frac       0.85015561      0.59064964      0.08007496 H
atom_frac       0.36275635      0.08910965      0.08613207 H
atom_frac       0.76725925      0.06198694      0.58646056 H
atom_frac       0.57422444      0.34819147     -0.11460788 H
atom_frac       0.95772519      0.86047998      0.74617773 H
atom_frac       0.74036290      0.26977865      1.07636470 H
atom_frac       0.11647184      0.36216978      1.08518405 H
atom_frac       0.63709423      0.91086105      0.91385279 H
atom_frac       0.23275189      0.93806690      0.41361239 H
atom_frac       0.42579132      0.65181792      1.11460629 H
atom_frac       0.04230299      0.13940898      0.25382330 H
atom_frac       0.25965605      0.73021967     -0.07633181 H
atom_frac       0.88353126      0.63783685     -0.08523294 H
atom_frac       0.30075709     -0.09345813     -0.00699723 N
atom_frac      -0.09307848      0.08845214      0.41806823 N
atom_frac       0.72989893      0.48879019     -0.11523849 N
atom_frac       0.09307094      0.91150324      0.58194845 N
atom_frac       0.69921058      0.09343448      1.00695299 N
atom_frac       0.27012722      0.51120500      1.11522257 N
atom_frac       0.64173259      0.12839782      0.32123551 O
atom_frac       0.79859154      0.36545140      0.31845602 O
atom_frac       0.54350439      0.30470576      0.33227307 O
initial_moment 1.0
atom_frac       0.80362931      0.34783685      0.59394442 O
initial_moment 1.0
atom_frac       0.53796033      0.22649512      0.59342759 O
atom_frac       0.65430917      0.45808072      0.60674149 O
atom_frac       0.35827949      0.87161399      0.67878771 O
initial_moment 2.0
atom_frac       0.20142656      0.63457215      0.68153070 O
atom_frac       0.45652121      0.69532095      0.66776169 O
atom_frac       0.19640480      0.65216548      0.40602015 O
atom_frac       0.46206558      0.77352514      0.40660238 O
atom_frac       0.34572544      0.54194454      0.39328485 O
