lattice_vector     11.44057932     -6.28898809     -0.31059128
lattice_vector      0.32476398     13.52027157     -0.31243895
lattice_vector     -0.31361580     -0.56856663      7.98502294
atom_frac       0.18080790     -0.07421984      0.33393814 C
atom_frac       0.63954225      0.35719749      0.04811544 C
atom_frac       0.72534525      0.64068926      0.31521264 C
atom_frac       1.22470269      0.72314205      0.97590896 C
atom_frac       0.90504078      0.17664925      0.42233575 C
atom_frac       0.37878483      0.25053265      0.74593558 C
atom_frac       0.82020302      1.07541389      0.66704733 C
atom_frac       0.36017159      0.64257792      0.95176329 C
atom_frac       0.27418103      0.35893800      0.68432078 C
atom_frac      -0.22484123      0.27680303      0.02408350 C
atom_frac       0.09574491      0.82376866      0.57795426 C
atom_frac       0.62055045      0.74888716      0.25329203 C
atom_frac       0.53886878     -0.00811464      0.34516740 C
atom_frac      -0.02195415      0.53849605      0.35325186 C
atom_frac       0.43192338      0.42543831      0.36549690 C
atom_frac       0.02182583      0.46148008      0.64673489 C
atom_frac       0.46111166      0.00790391      0.65471981 C
atom_frac       0.56786253      0.57424430      0.63432150 C
atom_frac       0.58035454      0.09829750      0.43474243 C
atom_frac       0.88499678      0.46592006      0.43561576 C
atom_frac       0.51076121      0.40183494      0.45221081 C
atom_frac       0.90754203      0.42659726      0.58746018 C
atom_frac       0.54148357      0.10620538      0.59606681 C
atom_frac       0.58044782      0.47795726      0.59226251 C
atom_frac       0.41963178      0.90149089      0.56514862 C
atom_frac       0.11487082      0.53400956      0.56432368 C
atom_frac       0.48903647      0.59785658      0.54761489 C
atom_frac       0.09233097      0.57333802      0.41247940 C
atom_frac       0.45848960      0.89358276      0.40382026 C
atom_frac       0.41933515      0.52172694      0.40758050 C
atom_frac       0.58615993     -0.01694917      0.14380361 Cl
atom_frac      -0.04575737      0.58492816      0.16683097 Cl
atom_frac       0.33132650      0.31974785      0.21231810 Cl
atom_frac       0.04563675      0.41512047      0.83321967 Cl
atom_frac       0.41379531      0.01674173      0.85606983 Cl
atom_frac       0.66850379      0.67995535      0.78743231 Cl
atom_frac       0.66397438      0.32517034      0.53832728 V
initial_moment 1.0
atom_frac       0.33590519      0.67461251      0.46152891 V
initial_moment -1.0
atom_frac       0.20844560     -0.00905798      0.58140661 H
atom_frac      -0.36045930      0.22854092      0.17523465 H
atom_frac       0.79087677      0.79008697      0.21407720 H
atom_frac       0.36031377      0.77131459      0.82473176 H
atom_frac       0.79312293      0.00936945      0.42004842 H
atom_frac       0.20811292      0.20883893      0.78352812 H
atom_frac       0.07581988     -0.03963079      0.50174925 H
atom_frac      -0.39957162      0.19567434     -0.03346451 H
atom_frac       0.69641283      0.68392964      0.08301091 H
atom_frac       0.39942946      0.80412625      1.03344437 H
atom_frac       0.92597196      0.04107573      0.50055148 H
atom_frac       0.30208140      0.31459606      0.91603901 H
atom_frac       0.11018277     -0.14104976      0.25298024 H
atom_frac       0.65317217      0.38168976     -0.07819561 H
atom_frac       0.64263217      0.56562576      0.30950595 H
atom_frac       1.20509437      0.69573097      1.09989576 H
atom_frac       0.97382517      0.24225800      0.50735898 H
atom_frac       0.46160761      0.32549259      0.76871678 H
atom_frac       0.89075086      1.14234581      0.74797825 H
atom_frac       0.34654474      0.61806896      1.07806345 H
atom_frac       0.35698505      0.43396171      0.69078615 H
atom_frac      -0.20525013      0.30420493     -0.09991114 H
atom_frac       0.02681858      0.75860089      0.49259523 H
atom_frac       0.53762825      0.67399464      0.23126906 H
atom_frac       0.25334208     -0.09273143      0.34313729 H
atom_frac       0.70104986      0.42264835      0.14103472 H
atom_frac       0.74814683      0.68160775      0.44395484 H
atom_frac       1.16498912      0.65911055      0.87945338 H
atom_frac       0.83376643      0.19665735      0.40543586 H
atom_frac       0.36662063      0.22020538      0.61255656 H
atom_frac       0.74774569      1.09398917      0.65718037 H
atom_frac       0.29861728      0.57716135      0.85885113 H
atom_frac       0.25164122      0.31849797      0.55531532 H
atom_frac      -0.16516999      0.34087414      0.12053278 H
atom_frac       0.16674499      0.80331078      0.59435236 H
atom_frac       0.63320249      0.77962115      0.38655381 H
atom_frac       0.20728788      0.00633975      0.28720363 H
atom_frac       0.55234936      0.33615818      0.08186141 H
atom_frac       0.79183406      0.62005332      0.27047747 H
atom_frac       1.22099847      0.80133075      0.96806259 H
atom_frac       0.93867242      0.16615022      0.30264415 H
atom_frac       0.37672387      0.18753595      0.82216201 H
atom_frac       0.79355043      0.99497308      0.71425478 H
atom_frac       0.44733594      0.66354672      0.91795004 H
atom_frac       0.20766115      0.37952156      0.72906905 H
atom_frac      -0.22105589      0.19865712      0.03198344 H
atom_frac       0.06220196      0.83402128      0.69783359 H
atom_frac       0.62247140      0.81168416      0.17675265 H
atom_frac       0.14005965     -0.06856844      0.50410617 N
atom_frac      -0.34336365      0.25688002      0.05679773 N
atom_frac       0.71328697      0.71869898      0.20706676 N
atom_frac       0.34318940      0.74296376      0.94315895 N
atom_frac       0.86124786      0.06937641      0.49718862 N
atom_frac       0.28574906      0.28036022      0.79176783 N
atom_frac       0.65532913      0.19244114      0.37908346 O
atom_frac       0.77706583      0.42705324      0.38660034 O
atom_frac       0.52762655      0.31369235      0.41141061 O
initial_moment 2.0
atom_frac       0.81790934      0.35879547      0.65589323 O
initial_moment 1.0
atom_frac       0.58462690      0.20725831      0.68397930 O
atom_frac       0.65392465      0.45293353      0.67025437 O
atom_frac       0.34464771      0.80735561      0.62081827 O
initial_moment 1.0
atom_frac       0.22280032      0.57282324      0.61329309 O
atom_frac       0.47221594      0.68602226      0.58840786 O
atom_frac       0.18197274      0.64108939      0.34400725 O
atom_frac       0.41531547      0.79252779      0.31589430 O
atom_frac       0.34587789      0.54678741      0.32959894 O
