# 
# This is the geometry file that corresponds to the current relaxation step.
# If you do not want this file to be written, set the "write_restart_geometry" flag to .false.
#  aims_uuid : EC45FF19-BC76-441D-A15E-CD479E00F5A0                                
# 
lattice_vector     11.44057932     -6.28898809     -0.31059128
lattice_vector      0.32476398     13.52027157     -0.31243895
lattice_vector     -0.31361580     -0.56856663      7.98502294
atom_frac       0.20916642     -0.06057040      0.32551663 C
atom_frac       0.62581761      0.35588988      0.06372282 C
atom_frac       0.71391072      0.63164928      0.30591247 C
atom_frac       1.22860978      0.71581980      0.96112649 C
atom_frac       0.89990272      0.16247252      0.43541562 C
atom_frac       0.38285275      0.24954021      0.76473362 C
atom_frac       0.80051276      1.06474446      0.66653161 C
atom_frac       0.36978225      0.64216082      0.94196202 C
atom_frac       0.28056699      0.35930214      0.70358215 C
atom_frac      -0.23012191      0.28653122      0.03760853 C
atom_frac       0.10393129      0.83986386      0.55169197 C
atom_frac       0.62596299      0.75202020      0.23698936 C
atom_frac       0.53794431     -0.00767305      0.34464664 C
atom_frac      -0.02311801      0.54265681      0.35667054 C
atom_frac       0.42580125      0.42384070      0.37232750 C
atom_frac       0.02572712      0.46352090      0.63564303 C
atom_frac       0.45820902      0.00288876      0.66189467 C
atom_frac       0.56568780      0.57526013      0.63394420 C
atom_frac       0.57859015      0.09759164      0.43831442 C
atom_frac       0.88243055      0.46860374      0.43788841 C
atom_frac       0.50021880      0.39632067      0.46246567 C
atom_frac       0.91239809      0.42725763      0.57663116 C
atom_frac       0.53828330      0.10311794      0.60747945 C
atom_frac       0.57387498      0.47623736      0.60129438 C
atom_frac       0.41924312      0.89950406      0.56780998 C
atom_frac       0.11869914      0.53896303      0.55583522 C
atom_frac       0.49034802      0.60096629      0.54249172 C
atom_frac       0.08993969      0.57739372      0.41528157 C
atom_frac       0.45824239      0.89403125      0.40036662 C
atom_frac       0.41914392      0.52386620      0.40700723 C
atom_frac       0.58464605     -0.01347140      0.14535208 Cl
atom_frac      -0.04957605      0.58668463      0.17091727 Cl
atom_frac       0.32287123      0.31925971      0.22280867 Cl
atom_frac       0.05224948      0.42032146      0.82219162 Cl
atom_frac       0.41005574      0.00758246      0.86041085 Cl
atom_frac       0.66653147      0.68075622      0.78431867 Cl
atom_frac       0.66102916      0.32685527      0.54322474 V
atom_frac       0.33859041      0.67271013      0.45951736 V
atom_frac       0.06282867     -0.20999562      0.30161048 H
atom_frac      -0.37336504      0.22175177      0.16928653 H
atom_frac       0.78448450      0.76835719      0.17424834 H
atom_frac       0.36955298      0.77309635      0.82489110 H
atom_frac       0.94716706      0.21361663      0.68434727 H
atom_frac       0.21954929      0.21860203      0.82611806 H
atom_frac       0.17506909     -0.27049138      0.35458460 H
atom_frac      -0.40182027      0.20164738     -0.04278373 H
atom_frac       0.67716650      0.66235567      0.06650331 H
atom_frac       0.40156178      0.80029668      1.03508897 H
atom_frac       0.83150826      0.27630509      0.63854825 H
atom_frac       0.32070054      0.32703408      0.93958270 H
atom_frac       0.29024376     -0.01892499      0.40400847 H
atom_frac       0.64036638      0.38745019     -0.05836982 H
atom_frac       0.62870478      0.56175250      0.31260074 H
atom_frac       1.20167635      0.67672189      1.07531199 H
atom_frac       0.96086691      0.24460615      0.40296235 H
atom_frac       0.46789419      0.32189618      0.77348056 H
atom_frac       0.71728576      1.02395740      0.59318280 H
atom_frac       0.35469849      0.61350102      1.06582480 H
atom_frac       0.36306123      0.43308329      0.69793883 H
atom_frac      -0.20373566      0.32719040     -0.07558911 H
atom_frac       0.04227058      0.75735371      0.58193344 H
atom_frac       0.53893926      0.68371196      0.23612857 H
atom_frac       0.16876155     -0.00496755      0.33338245 H
atom_frac       0.68427126      0.41725216      0.16385122 H
atom_frac       0.74348240      0.67994236      0.42959473 H
atom_frac       1.17579051      0.65991787      0.85227683 H
atom_frac       0.82095890      0.13164081      0.35341715 H
atom_frac       0.36163349      0.21262955      0.63401201 H
atom_frac       0.83929731      1.00774156      0.65415638 H
atom_frac       0.31093420      0.57868796      0.84446785 H
atom_frac       0.25274067      0.31300472      0.57833328 H
atom_frac      -0.17874444      0.34212996      0.14774199 H
atom_frac       0.18091311      0.87116117      0.63800487 H
atom_frac       0.65286791      0.79448932      0.36440887 H
atom_frac       0.22952315     -0.07116632      0.19608311 H
atom_frac       0.53737908      0.32934199      0.09628891 H
atom_frac       0.77397553      0.60143089      0.26420527 H
atom_frac       1.22341635      0.79400034      0.96769675 H
atom_frac       0.93747284      0.10495011      0.41181578 H
atom_frac       0.38197159      0.18937008      0.84579696 H
atom_frac       0.78439644      1.07636493      0.79795181 H
atom_frac       0.45812967      0.66645620      0.91100395 H
atom_frac       0.21649626      0.38291734      0.74972595 H
atom_frac      -0.22225684      0.20962084      0.02868201 H
atom_frac       0.06531169      0.89673069      0.57098609 H
atom_frac       0.62878535      0.80983179      0.14992462 H
atom_frac       0.13569783     -0.16926548      0.38000131 N
atom_frac      -0.35221952      0.25772731      0.05814405 N
atom_frac       0.70451407      0.70473039      0.18618137 N
atom_frac       0.34964794      0.74093780      0.93948562 N
atom_frac       0.87282946      0.17257914      0.60927856 N
atom_frac       0.29678485      0.28701665      0.81806618 N
atom_frac       0.64916511      0.18803791      0.38294026 O
atom_frac       0.77596430      0.43707774      0.38915316 O
atom_frac       0.50695739      0.30360344      0.42882910 O
atom_frac       0.82339236      0.34733471      0.65081848 O
atom_frac       0.57748881      0.19730052      0.69870230 O
atom_frac       0.64315648      0.45216978      0.68860811 O
atom_frac       0.34828962      0.80633459      0.61935715 O
atom_frac       0.22790118      0.57877000      0.60954887 O
atom_frac       0.48046619      0.69397351      0.57467530 O
atom_frac       0.18167312      0.65667330      0.34382935 O
atom_frac       0.41456196      0.79679813      0.31171911 O
atom_frac       0.35004427      0.55255147      0.32168362 O
# 
# What follows is the current estimated Hessian matrix constructed by the BFGS algorithm.
# This is NOT the true Hessian matrix of the system.
# If you do not want this information here, switch it off using the "hessian_to_restart_geometry" keyword.
# 
trust_radius             0.2000000030
hessian_file
