lattice_vector     11.44057932     -6.28898809     -0.31059128
lattice_vector      0.32476398     13.52027157     -0.31243895
lattice_vector     -0.31361580     -0.56856663      7.98502294
atom_frac       0.20754068     -0.06123712      0.34075910 C
atom_frac       0.63213227      0.36200721      0.06031415 C
atom_frac       0.71638580      0.63651996      0.31009713 C
atom_frac       1.22438032      0.71321329      0.96124689 C
atom_frac       0.89427288      0.15967316      0.42216780 C
atom_frac       0.38807014      0.25270030      0.76346314 C
atom_frac       0.79645149      1.06201369      0.65509523 C
atom_frac       0.36497230      0.63777978      0.94411086 C
atom_frac       0.28160159      0.35834594      0.69594899 C
atom_frac      -0.22624270      0.28842829      0.03700139 C
atom_frac       0.10716900      0.83645995      0.56890694 C
atom_frac       0.62003965      0.75014323      0.23830817 C
atom_frac       0.53731712     -0.00757313      0.34432076 C
atom_frac      -0.02230739      0.54268039      0.35696033 C
atom_frac       0.42780146      0.42554553      0.37042661 C
atom_frac       0.02578780      0.46150552      0.63407441 C
atom_frac       0.45874493      0.00367257      0.66213608 C
atom_frac       0.56658639      0.57593346      0.63374458 C
atom_frac       0.57833447      0.09803637      0.43736281 C
atom_frac       0.88293505      0.46845496      0.43747275 C
atom_frac       0.50218806      0.39780867      0.46029279 C
atom_frac       0.91248537      0.42609494      0.57561060 C
atom_frac       0.53855009      0.10380277      0.60703267 C
atom_frac       0.57570372      0.47744158      0.59979757 C
atom_frac       0.41968816      0.89985317      0.56887861 C
atom_frac       0.11910223      0.53749090      0.55534615 C
atom_frac       0.49094058      0.60165931      0.54293932 C
atom_frac       0.09067808      0.57665009      0.41515426 C
atom_frac       0.45794945      0.89422099      0.40073269 C
atom_frac       0.42000843      0.52490247      0.40679100 C
atom_frac       0.58335843     -0.01387406      0.14332513 Cl
atom_frac      -0.04848816      0.58853842      0.17122253 Cl
atom_frac       0.32376025      0.31994888      0.22060999 Cl
atom_frac       0.05185440      0.41653052      0.82082166 Cl
atom_frac       0.41086386      0.00890185      0.86211316 Cl
atom_frac       0.66835539      0.68264560      0.78441241 Cl
atom_frac       0.66180191      0.32729035      0.54172185 V
initial_moment 2.0
atom_frac       0.33883707      0.67318780      0.46104426 V
initial_moment 1.0
atom_frac       0.06193790     -0.21104504      0.31911173 H
atom_frac      -0.37242311      0.22481243      0.16351631 H
atom_frac       0.78157452      0.77354951      0.17807848 H
atom_frac       0.36898844      0.77212725      0.83171200 H
atom_frac       0.94395184      0.20991287      0.67066547 H
atom_frac       0.22314265      0.21872389      0.82140130 H
atom_frac       0.17607798     -0.26955189      0.36135003 H
atom_frac      -0.39734405      0.20746819     -0.04913764 H
atom_frac       0.67732660      0.66448189      0.06995686 H
atom_frac       0.39634536      0.79497093      1.04312020 H
atom_frac       0.82959517      0.27365935      0.63172348 H
atom_frac       0.32240272      0.32933588      0.93415590 H
atom_frac       0.28958900     -0.01910587      0.41687913 H
atom_frac       0.64744058      0.39382933     -0.06156570 H
atom_frac       0.63283723      0.56410450      0.31591795 H
atom_frac       1.19498783      0.67257821      1.07365628 H
atom_frac       0.95563501      0.24165111      0.38972940 H
atom_frac       0.47232168      0.32622940      0.77379566 H
atom_frac       0.71306919      1.02108436      0.58222160 H
atom_frac       0.34903336      0.60796271      1.06716379 H
atom_frac       0.36289511      0.43375695      0.69183818 H
atom_frac      -0.19735678      0.32967406     -0.07519329 H
atom_frac       0.04665944      0.75332533      0.59830129 H
atom_frac       0.53424759      0.67938872      0.23395442 H
atom_frac       0.16566656     -0.00699327      0.35256146 H
atom_frac       0.69106291      0.42242118      0.16099982 H
atom_frac       0.74395021      0.68514247      0.43372811 H
atom_frac       1.17318950      0.65909497      0.84994378 H
atom_frac       0.81481237      0.12957492      0.34166269 H
atom_frac       0.36859443      0.21552371      0.63279618 H
atom_frac       0.83560540      1.00536588      0.64245234 H
atom_frac       0.30633931      0.57552953      0.84509930 H
atom_frac       0.25624325      0.31134643      0.57103214 H
atom_frac      -0.17563187      0.34257642      0.14874277 H
atom_frac       0.18552799      0.86763810      0.65218177 H
atom_frac       0.64402577      0.79153397      0.36658861 H
atom_frac       0.22601153     -0.07084409      0.21006395 H
atom_frac       0.54380070      0.33663777      0.09261283 H
atom_frac       0.77932840      0.60996374      0.26876214 H
atom_frac       1.22045967      0.79206817      0.96931182 H
atom_frac       0.93088980      0.10145780      0.39772970 H
atom_frac       0.38723987      0.19319012      0.84580998 H
atom_frac       0.78078840      1.07392899      0.78665136 H
atom_frac       0.45348793      0.66208722      0.91388973 H
atom_frac       0.21516084      0.37937443      0.73934240 H
atom_frac      -0.22083018      0.21025731      0.02787349 H
atom_frac       0.06805245      0.89259224      0.59206257 H
atom_frac       0.62204034      0.80801857      0.15191063 H
atom_frac       0.13634656     -0.17109117      0.39478919 N
atom_frac      -0.34839483      0.26201506      0.05396597 N
atom_frac       0.70301369      0.70748019      0.18943194 N
atom_frac       0.34597892      0.73769866      0.94397825 N
atom_frac       0.86858736      0.17019030      0.59727794 N
atom_frac       0.29960696      0.28818370      0.81330417 N
atom_frac       0.64909056      0.18826970      0.38127735 O
atom_frac       0.77654364      0.43753713      0.38837611 O
atom_frac       0.50867922      0.30488090      0.42584065 O
initial_moment 1.0
atom_frac       0.82319825      0.34592918      0.64967709 O
initial_moment 1.0
atom_frac       0.57812032      0.19837237      0.69813771 O
atom_frac       0.64519858      0.45335163      0.68701168 O
atom_frac       0.34892892      0.80680318      0.62158866 O
initial_moment 1.0
atom_frac       0.22833479      0.57787002      0.61050918 O
atom_frac       0.48087456      0.69465753      0.57640114 O
atom_frac       0.18252936      0.65698149      0.34481033 O
atom_frac       0.41397874      0.79677050      0.31174080 O
atom_frac       0.35047727      0.55346693      0.32175191 O
