# 
# This is the geometry file that corresponds to the current relaxation step.
# If you do not want this file to be written, set the "write_restart_geometry" flag to .false.
#  aims_uuid : 61AE6B47-E78C-49E8-A594-6C080187936C                                
# 
lattice_vector     14.41934669      0.31645855      0.13592038
lattice_vector     -6.69592280     11.18242944      0.03203218
lattice_vector     -0.45182798     -0.92766864      4.38631997
atom_frac       0.00326842      0.41664436      0.68657056 C
atom_frac       0.55576650      0.55976583      0.76018353 C
atom_frac       0.44940192      0.01438463      0.71010578 C
atom_frac       0.54052635      0.95433101      0.23153050 C
atom_frac       0.43407464      0.40887016      0.18147933 C
atom_frac       0.98661332      0.55212159      0.25498034 C
atom_frac       0.90120213      0.40401393      0.57981690 C
atom_frac       0.58438050      0.47886973      0.61782758 C
atom_frac       0.53137076      0.10653286      0.59145818 C
atom_frac       0.57640858      0.07690509      0.34597363 C
atom_frac       0.52281020      0.40339474      0.32536190 C
atom_frac       0.89223520      0.46922166      0.35373833 C
atom_frac       0.08867515      0.56471480      0.36165468 C
atom_frac       0.40545750      0.48976007      0.32377223 C
atom_frac       0.45856090      0.86219705      0.35014932 C
atom_frac       0.41352715      0.89180957      0.59564686 C
atom_frac       0.46703398      0.56524846      0.61624337 C
atom_frac       0.09766739      0.49955532      0.58782710 C
atom_frac       0.74739212      0.96146616      0.51751883 C
atom_frac       0.84252889      0.14521541      0.31718059 C
atom_frac       0.24248934      0.00718903      0.42440322 C
atom_frac       0.14765295      0.82332793      0.62446001 C
atom_frac       0.00999891      0.34493332     -0.02419704 Cl
atom_frac       0.61995268      0.64501560      0.12169321 Cl
atom_frac       0.39634827      0.05374718      0.99835110 Cl
atom_frac       0.59361229      0.91499020      0.94337351 Cl
atom_frac       0.36982976      0.32359298      0.82000385 Cl
atom_frac       0.97972670      0.62374150      0.96577497 Cl
atom_frac       0.67631835      0.33437581      0.46841065 V
initial_moment 2.0
atom_frac       0.31355932      0.63430880      0.47296873 V
initial_moment 1.0
atom_frac       0.88707393      1.01339403      0.32723131 H
initial_moment -1.0
atom_frac       0.77234278      0.97339920      0.07480993 H
atom_frac       0.68175435      0.98179894      0.51809283 H
atom_frac       0.76737181      0.14622842      0.25229613 H
atom_frac       0.80121042      0.99907919      0.75088258 H
atom_frac       0.88191617      0.19591753      0.54775805 H
atom_frac       0.71099605      0.86363887      0.46198872 H
atom_frac       0.89561097      0.18250265      0.15414741 H
atom_frac       0.21746960     -0.00493415      0.86703411 H
atom_frac       0.10275425     -0.04509948      0.61448517 H
atom_frac       0.18873267     -0.03058817      0.19090957 H
atom_frac       0.10826152      0.77267670      0.39388345 H
atom_frac       0.30835293     -0.01280297      0.42416503 H
atom_frac       0.22292093      0.82252446      0.68916036 H
atom_frac       0.27858385      0.10497647      0.47978340 H
atom_frac       0.09464834      0.78583913      0.78749009 H
atom_frac       0.81532744      1.01905482      0.30165122 N
atom_frac       0.17457655     -0.05057775      0.64011026 N
atom_frac       0.81214884      0.34448360      0.68311865 O
atom_frac       0.66525657      0.46552354      0.71562727 O
atom_frac       0.57103957      0.22246318      0.67156310 O
atom_frac       0.64173437      0.16946392      0.23749888 O
atom_frac       0.56050703      0.33844106      0.21073657 O
atom_frac       0.79245652      0.44582966      0.27749461 O
atom_frac       0.17770342      0.62420843      0.25819972 O
atom_frac       0.32461393      0.50311814      0.22580120 O
atom_frac       0.41886727      0.74626553      0.26993067 O
initial_moment -1.0
atom_frac       0.34820228      0.79923133      0.70404891 O
atom_frac       0.42937478      0.63025794      0.73074149 O
atom_frac       0.19745597      0.52296997      0.66400146 O
atom_frac       1.09062051      0.24760894      0.50570757 C
atom_frac       0.19157851      0.18878083     -0.36756106 H
atom_frac       0.07826778      0.08168300      0.37152900 H
atom_frac       1.05348296      0.25733504      0.29687728 H
atom_frac       1.15357626      0.33751426      0.63353199 H
atom_frac       1.02990880      0.20041919      0.64387247 H
atom_frac       0.14089238      0.17622996      0.42688824 N
atom_frac       0.20177330      0.21576326      0.18181946 C
atom_frac       0.14156235      0.16338412     -0.03713871 H
atom_frac       0.23412374      0.31254437      0.19657016 H
atom_frac       0.26757452      0.19681304      0.18740843 H
atom_frac       0.78814254      0.75287376      0.76039315 C
atom_frac       0.79822705      0.77952444      1.30954373 H
atom_frac       0.91145431      0.88699442      0.57036105 H
atom_frac       0.84835296      0.80536644      0.97934007 H
atom_frac       0.75586457      0.65611084      0.74592648 H
atom_frac       0.72229454      0.77175578      0.75458054 H
atom_frac       0.84899935      0.79238541      0.51526127 N
atom_frac       0.89962330      0.72132143      0.43751764 C
atom_frac      -0.06264097      0.71265337      0.64693965 H
atom_frac      -0.16324800      0.63098854      0.31159269 H
atom_frac      -0.04008469      0.76814799      0.29793297 H
