# 
# This is the geometry file that corresponds to the current relaxation step.
# If you do not want this file to be written, set the "write_restart_geometry" flag to .false.
#  aims_uuid : 8BF91B07-E1B6-48DA-AE50-B8533337E1FE                                
# 
lattice_vector     14.76893406      0.40051069      0.16725581
lattice_vector     -6.34196796     11.12844982      0.09112503
lattice_vector     -0.56139083     -0.22030674      4.42010010
atom_frac       0.00633263      0.41945570      0.73273459 C
atom_frac       0.55954017      0.55728230      0.72937490 C
atom_frac       0.44442593      0.00724110      0.69618131 C
atom_frac       0.54590231      0.95789818      0.24783291 C
atom_frac       0.42746953      0.41310335      0.21817997 C
atom_frac       0.98191438      0.54511538      0.22249083 C
atom_frac       0.90414406      0.39725845      0.61968110 C
atom_frac       0.58406381      0.47616842      0.60053273 C
atom_frac       0.52891355      0.10072883      0.57672004 C
atom_frac       0.57894361      0.07737693      0.33576449 C
atom_frac       0.51890137      0.40578158      0.32215012 C
atom_frac       0.89327529      0.46450339      0.35493408 C
atom_frac       0.08372496      0.56756040      0.33555644 C
atom_frac       0.40289594      0.49388249      0.34756198 C
atom_frac       0.46087195      0.86463447      0.36579389 C
atom_frac       0.41163138      0.88819526      0.60725167 C
atom_frac       0.46779494      0.56421898      0.62574230 C
atom_frac       0.09442608      0.49901106      0.59675118 C
atom_frac       0.74412954      0.95162465      0.53302165 C
atom_frac       0.82203996      0.12646788      0.19807486 C
atom_frac       0.25066859      0.02674619      0.40687400 C
atom_frac       0.17199429      0.84427369      0.69841195 C
atom_frac       0.02861320      0.34714133      0.03868696 Cl
atom_frac       0.63143202      0.63533645      0.05639177 Cl
atom_frac       0.39678282      0.04529612      0.98441454 Cl
atom_frac       0.59347638      0.91987811      0.95943125 Cl
atom_frac       0.35508398      0.33544980      0.89309104 Cl
atom_frac       0.96203766      0.61922532      0.91265371 Cl
atom_frac       0.67872215      0.33332193      0.45147643 V
initial_moment 2.0
atom_frac       0.30699553      0.63473213      0.49326149 V
initial_moment 1.0
atom_frac       0.87463094      1.00135314      0.31200478 H
initial_moment -1.0
atom_frac       0.76090379      0.95364374      0.08105477 H
atom_frac       0.67306552      0.96109413      0.50852167 H
atom_frac       0.74834143      0.12554687      0.12029338 H
atom_frac       0.79386810      0.99725836      0.74943300 H
atom_frac       0.86197695      0.19004074      0.38438610 H
atom_frac       0.72467136      0.85770249      0.54199899 H
atom_frac       0.87117301      0.15222699      0.01660174 H
atom_frac       0.22897530      0.01346876      0.85948028 H
atom_frac       0.11770733     -0.03102879      0.61939667 H
atom_frac       0.20286732     -0.01886396      0.18715778 H
atom_frac       0.14351978      0.79353121      0.48623860 H
atom_frac       0.32272647      0.01916898      0.43417081 H
atom_frac       0.24470880      0.84519565      0.78944188 H
atom_frac       0.26805425      0.11999441      0.40143624 H
atom_frac       0.11665418      0.80490451      0.86364419 H
atom_frac       0.80379854      1.00559376      0.27998041 N
atom_frac       0.18932379     -0.03304721      0.64931526 N
atom_frac       0.82172738      0.32933675      0.73057238 O
atom_frac       0.65983566      0.45748701      0.69153473 O
atom_frac       0.56765340      0.20859518      0.66242925 O
atom_frac       0.64667347      0.16983360      0.22760227 O
atom_frac       0.55300479      0.34695624      0.19704664 O
atom_frac       0.80128813      0.44808067      0.27083414 O
atom_frac       0.16679043      0.63679655      0.22870412 O
atom_frac       0.32653344      0.51130042      0.25613632 O
atom_frac       0.42004887      0.75687178      0.27764603 O
initial_moment -1.0
atom_frac       0.34322565      0.79539624      0.71445759 O
atom_frac       0.43307238      0.62207006      0.75217094 O
atom_frac       0.18642056      0.51458261      0.67817083 O
atom_frac       1.02696013      0.20956540      0.53852629 C
atom_frac       0.16421452      0.24855359     -0.18046011 H
atom_frac       0.10685988      0.11876671      0.60846820 H
atom_frac       0.99587552      0.16812878      0.31189066 H
atom_frac       1.03419744      0.29898244      0.52902009 H
atom_frac       0.97758098      0.15665778      0.70873636 H
atom_frac       0.12717367      0.21051179      0.59737291 N
atom_frac       0.19229270      0.27049681      0.36499800 C
atom_frac       0.14861617      0.22110610      0.14299778 H
atom_frac       0.20726230      0.36314931      0.34767821 H
atom_frac       0.26643221      0.26939509      0.40194970 H
atom_frac       0.79697301      0.69717195      0.59219972 C
atom_frac       0.82335101      0.71870575      1.13491365 H
atom_frac       0.88134309      0.84810873      0.34778490 H
atom_frac       0.84328629      0.74610118      0.81013973 H
atom_frac       0.78147018      0.60445179      0.60876371 H
atom_frac       0.72301314      0.69893640      0.56087516 H
atom_frac       0.86119219      0.75611293      0.35683922 N
atom_frac       0.96181627      0.75758482      0.41263508 C
atom_frac      -0.00565190      0.80235543      0.63431435 H
atom_frac      -0.04469839      0.66786359      0.41997234 H
atom_frac       0.00805190      0.80902027      0.23529607 H
